Hf  V  N 
 1.0000000000000000
     7.2471078102498634    0.0000000000000000    0.0000000000000000
     0.0000000000000000    5.5080789531478542    0.0000000000000000
     0.0000000000000000    0.0000000000000000    5.0550877297707020
 Hf  V   N  
   4   4  12
Direct
  0.0000000000000000  0.8384573161664548  0.5089157808273725
  0.4999999999999999  0.2205142279445152  0.0089157808273725
  0.0000000000000000  0.3383332472942157  0.9909915536711958
  0.4999999999999999  0.7206382968167591  0.4909915536711960
  0.7429311467122871  0.7717127526605956  0.0166382055916022
  0.7570688532877128  0.2872587914503745  0.5166382055916022
  0.2429311467122872  0.2872587914503745  0.5166382055916022
  0.2570688532877128  0.7717127526605956  0.0166382055916022
  0.0000000000000000  0.7527604964187354  0.0764913028874260
  0.4999999999999999  0.3062110476922347  0.5764913028874261
  0.0000000000000000  0.2472062639817950  0.4085549621987900
  0.4999999999999999  0.8117652801291750  0.9085549621987900
  0.7071197941682820  0.4677240152044179  0.1723145003601457
  0.7928802058317179  0.5912475289065522  0.6723145003601457
  0.2071197941682819  0.5912475289065522  0.6723145003601457
  0.2928802058317181  0.4677240152044179  0.1723145003601457
  0.7906771116942827  0.0961690409355996  0.8125274623014830
  0.7093228883057172  0.9628025031753704  0.3125274623014829
  0.2906771116942827  0.9628025031753704  0.3125274623014829
  0.2093228883057173  0.0961690409355996  0.8125274623014830
