Hf  V  N 
 1.0000000000000000
     7.2471078102498634    0.0000000000000000    0.0000000000000000
     0.0000000000000000    5.5080789531478542    0.0000000000000000
     0.0000000000000000    0.0000000000000000    5.0550877297707020
 Hf  V   N  
   4   4  12
Direct
  0.0000000000000000  0.8384573161664548  0.5089157808273725
  0.4999999999999999  0.4564004043883951  0.0089157808273725
  0.0000000000000000  0.3385813850386938  1.0268400079835494
  0.4999999999999999  0.9562763355161514  0.5268400079835494
  0.7429311467122871  0.9052018796723146  0.0011933560631428
  0.7570688532877128  0.3896558408825355  0.5011933560631429
  0.2429311467122872  0.3896558408825355  0.5011933560631429
  0.2570688532877128  0.9052018796723146  0.0011933560631428
  0.0000000000000000  0.9241541359141749 -0.0586597412326814
  0.4999999999999999  0.3707035846406750  0.4413402587673186
  0.0000000000000000  0.4297083683511151  0.6092765994559557
  0.4999999999999999  0.8651493522037347  1.1092765994559555
  0.7906771116942829  0.5807455913973103  0.2053040993532622
  0.7093228883057170  0.7141121291575395  0.7053040993532621
  0.2906771116942831  0.7141121291575395  0.7053040993532621
  0.2093228883057170  0.5807455913973103  0.2053040993532622
  0.7071197941682816  0.2091906171284921  0.8455170612945995
  0.7928802058317181  1.0856671034263579  0.3455170612945994
  0.2071197941682817  1.0856671034263579  0.3455170612945994
  0.2928802058317184  0.2091906171284921  0.8455170612945995
