Hf  V  N 
 1.0000000000000000
     7.2471078102498634    0.0000000000000000    0.0000000000000000
     0.0000000000000000    5.5080789531478542    0.0000000000000000
     0.0000000000000000    0.0000000000000000    5.0550877297707020
 Hf  V   N  
   4   4  12
Direct
  0.0000000000000000  0.8384573161664548  0.5089157808273725
  0.4999999999999999  0.3384573161664548  0.0089157808273725
  0.0000000000000000  0.3384573161664547  1.0089157808273725
  0.4999999999999999  0.8384573161664548  0.5089157808273725
  0.7429311467122871  0.8384573161664548  0.0089157808273725
  0.7570688532877128  0.3384573161664549  0.5089157808273725
  0.2429311467122872  0.3384573161664549  0.5089157808273725
  0.2570688532877128  0.8384573161664548  0.0089157808273725
  0.0000000000000000  0.8384573161664548  0.0089157808273725
  0.4999999999999999  0.3384573161664548  0.5089157808273725
  0.0000000000000000  0.3384573161664549  0.5089157808273725
  0.4999999999999999  0.8384573161664548  1.0089157808273725
  0.7488984529312823  0.5242348033008638  0.1888092998567039
  0.7511015470687176  0.6526798290320457  0.6888092998567039
  0.2488984529312823  0.6526798290320457  0.6888092998567039
  0.2511015470687177  0.5242348033008638  0.1888092998567039
  0.7488984529312823  0.1526798290320457  0.8290222617980413
  0.7511015470687176  1.0242348033008639  0.3290222617980411
  0.2488984529312823  1.0242348033008639  0.3290222617980411
  0.2511015470687177  0.1526798290320457  0.8290222617980413
