Hf  V  N 
 1.0000000000000000
     7.2471078102498634    0.0000000000000000    0.0000000000000000
     0.0000000000000000    5.5080789531478542    0.0000000000000000
     0.0000000000000000    0.0000000000000000    5.0550877297707020
 Hf  V   N  
   4   4  12
Direct
  0.0000000000000000  0.8384573161664548  0.5089157808273725
  0.4999999999999999  0.5153719484993645  0.0089157808273725
  0.0000000000000000  0.3386434194748134  1.0358021215616375
  0.4999999999999999  1.0151858451909990  0.5358021215616375
  0.7429311467122871  0.9385741614252439 -0.0026678563189719
  0.7570688532877128  0.4152551032405753  0.4973321436810281
  0.2429311467122872  0.4152551032405753  0.4973321436810281
  0.2570688532877129  0.9385741614252439 -0.0026678563189719
  0.0000000000000000  0.9670025457880342 -0.0924475022627078
  0.4999999999999999  0.3868267188777850  0.4075524977372922
  0.0000000000000000  0.4753338944434447  0.6594570087702465
  0.4999999999999999  0.8784953702223744  1.1594570087702465
  0.8115664410757830  0.6090009854455329  0.2135514991015412
  0.6884335589242169  0.7448282792202860  0.7135514991015413
  0.3115664410757831  0.7448282792202860  0.7135514991015413
  0.1884335589242170  0.6090009854455329  0.2135514991015412
  0.6862304647867816  0.2374460111767149  0.8537644610428784
  0.8137695352132183  1.1163832534891043  0.3537644610428784
  0.1862304647867817  1.1163832534891043  0.3537644610428784
  0.3137695352132184  0.2374460111767149  0.8537644610428784
