Hf  V  N 
 1.0000000000000000
     7.2471078102498634    0.0000000000000000    0.0000000000000000
     0.0000000000000000    5.5080789531478542    0.0000000000000000
     0.0000000000000000    0.0000000000000000    5.0550877297707020
 Hf  V   N  
   4   4  12
Direct
  0.0000000000000000  0.8384573161664548  0.5089157808273725
  0.4999999999999999  0.1615426838335452  0.0089157808273725
  0.0000000000000000  0.3382712128580962  0.9820294400931076
  0.4999999999999999  0.6617287871419109  0.4820294400931076
  0.7429311467122871  0.7383404709076657  0.0204994179737170
  0.7570688532877128  0.2616595290923343  0.5204994179737170
  0.2429311467122872  0.2616595290923343  0.5204994179737170
  0.2570688532877127  0.7383404709076657  0.0204994179737170
  0.0000000000000000  0.7099120865448755  0.1102790639174529
  0.4999999999999999  0.2900879134551246  0.6102790639174529
  0.0000000000000000  0.2015807378894650  0.3583745528844986
  0.4999999999999999  0.7984192621105352  0.8583745528844986
  0.6862304647867816  0.4394686211561947  0.1640671006118666
  0.8137695352132183  0.5605313788438053  0.6640671006118666
  0.1862304647867816  0.5605313788438053  0.6640671006118666
  0.3137695352132184  0.4394686211561947  0.1640671006118666
  0.8115664410757830  0.0679136468873764  0.8042800625532038
  0.6884335589242169  0.9320863531126237  0.3042800625532038
  0.3115664410757830  0.9320863531126237  0.3042800625532038
  0.1884335589242170  0.0679136468873764  0.8042800625532038
