Hf  V  N 
 1.0000000000000000
     7.2471078102498634    0.0000000000000000    0.0000000000000000
     0.0000000000000000    5.5080789531478542    0.0000000000000000
     0.0000000000000000    0.0000000000000000    5.0550877297707020
 Hf  V   N  
   4   4  12
Direct
  0.0000000000000000  0.8384573161664548  0.5089157808273725
  0.4999999999999999  0.3974288602774252  0.0089157808273725
  0.0000000000000000  0.3385193506025743  1.0178778944054609
  0.4999999999999999  0.8973668258413032  0.5178778944054609
  0.7429311467122871  0.8718295979193847  0.0050545684452577
  0.7570688532877128  0.3640565785244952  0.5050545684452578
  0.2429311467122872  0.3640565785244952  0.5050545684452578
  0.2570688532877128  0.8718295979193847  0.0050545684452577
  0.0000000000000000  0.8813057260403150 -0.0248719802026545
  0.4999999999999999  0.3545804504035650  0.4751280197973455
  0.0000000000000000  0.3840828422587851  0.5590961901416642
  0.4999999999999999  0.8518033341850948  1.0590961901416642
  0.7697877823127828  0.5524901973490871  0.1970566996049831
  0.7302122176872171  0.6833959790947927  0.6970566996049831
  0.2697877823127828  0.6833959790947927  0.6970566996049831
  0.2302122176872173  0.5524901973490871  0.1970566996049831
  0.7280091235497819  0.1809352230802690  0.8372696615463203
  0.7719908764502180  1.0549509533636110  0.3372696615463203
  0.2280091235497820  1.0549509533636110  0.3372696615463203
  0.2719908764502180  0.1809352230802690  0.8372696615463203
