Hf  V  N 
 1.0000000000000000
     7.2471078102498634    0.0000000000000000    0.0000000000000000
     0.0000000000000000    5.5080789531478542    0.0000000000000000
     0.0000000000000000    0.0000000000000000    5.0550877297707020
 Hf  V   N  
   4   4  12
Direct
  0.0000000000000000  0.8384573161664548  0.5089157808273725
  0.4999999999999999  0.2794857720554851  0.0089157808273725
  0.0000000000000000  0.3383952817303352  0.9999536672492843
  0.4999999999999999  0.7795478064916072  0.4999536672492843
  0.7429311467122871  0.8050850344135253  0.0127769932094873
  0.7570688532877128  0.3128580538084148  0.5127769932094873
  0.2429311467122872  0.3128580538084148  0.5127769932094873
  0.2570688532877128  0.8050850344135253  0.0127769932094873
  0.0000000000000000  0.7956089062925952  0.0427035418573992
  0.4999999999999999  0.3223341819293448  0.5427035418573992
  0.0000000000000000  0.2928317900741251  0.4587353715130814
  0.4999999999999999  0.8251112981478150  0.9587353715130813
  0.7280091235497821  0.4959794092526409  0.1805619001084248
  0.7719908764502178  0.6219636789692990  0.6805619001084249
  0.2280091235497822  0.6219636789692990  0.6805619001084249
  0.2719908764502179  0.4959794092526409  0.1805619001084248
  0.7697877823127824  0.1244244349838227  0.8207748620497621
  0.7302122176872173  0.9935186532381174  0.3207748620497620
  0.2697877823127824  0.9935186532381174  0.3207748620497620
  0.2302122176872175  0.1244244349838227  0.8207748620497621
