In3                                     
   1.0000000000000000     
     8.5626750249800736   -1.6527456773526261    0.0123470480923294
     8.5626750249800718    1.6527456773526221    0.0123470480923300
     8.2395649862739990   -0.0000000000000022    2.8566923596094318
   In
     3
Direct
  0.0000000000000000  0.0000000000000000  0.0000000000000000
  0.7778496182915049  0.7778496182915049  0.7778496182915049
  0.2221503817084951  0.2221503817084951  0.2221503817084951

  0.00000000E+00  0.00000000E+00  0.00000000E+00
  0.00000000E+00  0.00000000E+00  0.00000000E+00
  0.00000000E+00  0.00000000E+00  0.00000000E+00
