Ti4 N2                                  
   1.0000000000000000     
     4.9111201364203048   -0.0000000000000000    0.0000000000000000
    -0.0000000000000000    4.9111201364203048    0.0000000000000000
     0.0000000000000000    0.0000000000000000    3.0020842351805248
   Ti   N 
     4     2
Direct
  0.2025576969581664  0.7974423030418336  0.5000000000000000
  0.7025576969581664  0.7025576969581664  0.0000000000000000
  0.7974423030418336  0.2025576969581664  0.5000000000000000
  0.2974423030418336  0.2974423030418336  0.0000000000000000
  0.5000000000000000  0.5000000000000000  0.5000000000000000
  0.0000000000000000  0.0000000000000000  0.0000000000000000

  0.00000000E+00  0.00000000E+00  0.00000000E+00
  0.00000000E+00  0.00000000E+00  0.00000000E+00
  0.00000000E+00  0.00000000E+00  0.00000000E+00
  0.00000000E+00  0.00000000E+00  0.00000000E+00
  0.00000000E+00  0.00000000E+00  0.00000000E+00
  0.00000000E+00  0.00000000E+00  0.00000000E+00
