Ta30                                    
   1.0000000000000000     
    10.2161531014522513    0.0000000000000000    0.0000000000000000
     0.0000000000000000   10.2161531014522513    0.0000000000000000
     0.0000000000000000   -0.0000000000000000    5.2824527658010254
   Ta
    30
Direct
  0.5000000000000000  0.0000000000000000  0.2498858632923273
  0.0000000000000000  0.5000000000000000  0.7501141367076727
  0.7607653687007243  0.9322617484627216  0.2498838600915363
  0.0677382515372784  0.7607653687007243  0.7501161399084637
  0.9322617484627216  0.2392346312992757  0.7501161399084637
  0.2392346312992757  0.0677382515372784  0.2498838600915363
  0.2607653687007243  0.5677382515372784  0.7501161399084637
  0.7392346312992757  0.4322617484627216  0.7501161399084637
  0.4322617484627216  0.2607653687007243  0.2498838600915363
  0.5677382515372784  0.7392346312992757  0.2498838600915363
  0.0344259850483013  0.8720087866386379  0.2501262758214651
  0.1279912133613621  0.0344259850483013  0.7498737241785349
  0.8720087866386379  0.9655740149516987  0.7498737241785349
  0.9655740149516987  0.1279912133613621  0.2501262758214651
  0.5344259850483013  0.6279912133613621  0.7498737241785349
  0.4655740149516987  0.3720087866386379  0.7498737241785349
  0.3720087866386379  0.5344259850483013  0.2501262758214651
  0.6279912133613621  0.4655740149516987  0.2501262758214651
  0.6051514399675639  0.8948485600324361  0.7498426814603008
  0.1051514399675639  0.6051514399675639  0.2501573185396992
  0.8948485600324361  0.3948485600324361  0.2501573185396992
  0.3948485600324361  0.1051514399675639  0.7498426814603008
  0.8189977596415332  0.6810022403584668  0.0003694082364021
  0.3189977596415332  0.8189977596415332  0.9996305917635979
  0.6810022403584668  0.1810022403584668  0.9996305917635979
  0.1810022403584668  0.3189977596415332  0.0003694082364021
  0.3189923762827860  0.8189923762827860  0.5003239771009618
  0.1810076237172140  0.3189923762827860  0.4996760228990382
  0.8189923762827860  0.6810076237172140  0.4996760228990382
  0.6810076237172140  0.1810076237172140  0.5003239771009618

  0.00000000E+00  0.00000000E+00  0.00000000E+00
  0.00000000E+00  0.00000000E+00  0.00000000E+00
  0.00000000E+00  0.00000000E+00  0.00000000E+00
  0.00000000E+00  0.00000000E+00  0.00000000E+00
  0.00000000E+00  0.00000000E+00  0.00000000E+00
  0.00000000E+00  0.00000000E+00  0.00000000E+00
  0.00000000E+00  0.00000000E+00  0.00000000E+00
  0.00000000E+00  0.00000000E+00  0.00000000E+00
  0.00000000E+00  0.00000000E+00  0.00000000E+00
  0.00000000E+00  0.00000000E+00  0.00000000E+00
  0.00000000E+00  0.00000000E+00  0.00000000E+00
  0.00000000E+00  0.00000000E+00  0.00000000E+00
  0.00000000E+00  0.00000000E+00  0.00000000E+00
  0.00000000E+00  0.00000000E+00  0.00000000E+00
  0.00000000E+00  0.00000000E+00  0.00000000E+00
  0.00000000E+00  0.00000000E+00  0.00000000E+00
  0.00000000E+00  0.00000000E+00  0.00000000E+00
  0.00000000E+00  0.00000000E+00  0.00000000E+00
  0.00000000E+00  0.00000000E+00  0.00000000E+00
  0.00000000E+00  0.00000000E+00  0.00000000E+00
  0.00000000E+00  0.00000000E+00  0.00000000E+00
  0.00000000E+00  0.00000000E+00  0.00000000E+00
  0.00000000E+00  0.00000000E+00  0.00000000E+00
  0.00000000E+00  0.00000000E+00  0.00000000E+00
  0.00000000E+00  0.00000000E+00  0.00000000E+00
  0.00000000E+00  0.00000000E+00  0.00000000E+00
  0.00000000E+00  0.00000000E+00  0.00000000E+00
  0.00000000E+00  0.00000000E+00  0.00000000E+00
  0.00000000E+00  0.00000000E+00  0.00000000E+00
  0.00000000E+00  0.00000000E+00  0.00000000E+00
