Ga4                                     
   1.0000000000000000     
     2.2526161725453191   -3.8281081923973481    0.0000000000000000
     2.2526161725453191    3.8281081923973481   -0.0000000000000000
     0.0000000000000000    0.0000000000000000    4.5334700450032770
   Ga
     4
Direct
  0.3443483454519480  0.6556516545480520  0.5816395005584098
  0.6556516545480520  0.3443483454519480  0.4183604994415902
  0.1556516545480520  0.8443483454519480  0.0816395005584098
  0.8443483454519480  0.1556516545480520  0.9183604994415902

  0.00000000E+00  0.00000000E+00  0.00000000E+00
  0.00000000E+00  0.00000000E+00  0.00000000E+00
  0.00000000E+00  0.00000000E+00  0.00000000E+00
  0.00000000E+00  0.00000000E+00  0.00000000E+00
