Zr10 Sb6                                
   1.0000000000000000     
     4.2173658685055813   -7.3046929015736195    0.0000000000000000
     4.2173658685055813    7.3046929015736195   -0.0000000000000000
     0.0000000000000000    0.0000000000000000    5.7426445536021555
   Zr   Sb
    10     6
Direct
  0.7459662672039116  0.7459662672039116  0.7500000000000000
  0.2540337327960884  0.0000000000000000  0.7500000000000000
  0.0000000000000000  0.2540337327960884  0.7500000000000000
  0.2540337327960884  0.2540337327960884  0.2500000000000000
  0.7459662672039116  0.0000000000000000  0.2500000000000000
  0.0000000000000000  0.7459662672039116  0.2500000000000000
  0.6666669999999968  0.3333330000000032  0.0000000000000000
  0.3333330000000032  0.6666669999999968  0.0000000000000000
  0.3333330000000032  0.6666669999999968  0.5000000000000000
  0.6666669999999968  0.3333330000000032  0.5000000000000000
  0.3871128809041053  0.3871128809041053  0.7500000000000000
  0.6128871190958947  0.0000000000000000  0.7500000000000000
  0.0000000000000000  0.6128871190958947  0.7500000000000000
  0.6128871190958947  0.6128871190958947  0.2500000000000000
  0.3871128809041053  0.0000000000000000  0.2500000000000000
  0.0000000000000000  0.3871128809041053  0.2500000000000000

  0.00000000E+00  0.00000000E+00  0.00000000E+00
  0.00000000E+00  0.00000000E+00  0.00000000E+00
  0.00000000E+00  0.00000000E+00  0.00000000E+00
  0.00000000E+00  0.00000000E+00  0.00000000E+00
  0.00000000E+00  0.00000000E+00  0.00000000E+00
  0.00000000E+00  0.00000000E+00  0.00000000E+00
  0.00000000E+00  0.00000000E+00  0.00000000E+00
  0.00000000E+00  0.00000000E+00  0.00000000E+00
  0.00000000E+00  0.00000000E+00  0.00000000E+00
  0.00000000E+00  0.00000000E+00  0.00000000E+00
  0.00000000E+00  0.00000000E+00  0.00000000E+00
  0.00000000E+00  0.00000000E+00  0.00000000E+00
  0.00000000E+00  0.00000000E+00  0.00000000E+00
  0.00000000E+00  0.00000000E+00  0.00000000E+00
  0.00000000E+00  0.00000000E+00  0.00000000E+00
  0.00000000E+00  0.00000000E+00  0.00000000E+00
