 Y Mo  N 
 1.0000000000000000
     5.6545810236232592    0.0000000000000000    0.0000000000000000
     0.0000000000000000    5.3693341680810009    0.0000000000000000
     0.0000000000000000    0.0000000000000000    7.7677668422943267
 Y   Mo  N  
   4   4  12
Direct
  0.9339461483695075  0.0137817379270260  0.3206345179488539
  0.4779820494565024  0.5137817379270260  0.8206345179488539
  0.4339461483695075  0.5045939126423420  0.3206345179488539
 -0.0220179505434976  1.0045939126423420  0.8206345179488539
  0.9205823385101486  0.5233241500129205  0.5630847723363132
  0.4913458593158613  0.0233241500129253  0.0630847723363128
  0.4205823385101485  0.9950515005564426  0.5630847723363132
 -0.0086541406841388  0.4950515005564451  0.0630847723363128
  0.1470741033843954  0.2052667102144170  0.0868313216201599
  0.2648540944416145  0.7052667102144170  0.5868313216201602
  0.4637609609276058  0.9778608948996187  0.3204699591401172
  0.9481672368984040  0.4778608948996186  0.8204699591401172
  0.6470741033843953  0.3131089403549510  0.0868313216201599
  0.7648540944416143  0.8131089403549510  0.5868313216201602
  0.4481672368984041  0.0405147556697494  0.8204699591401172
 -0.0362390390723943  0.5405147556697494  0.3204699591401172
  0.1615660077279746  0.2059701056206649  0.5538794442304870
  0.2503621900980353  0.7059701056206650  0.0538794442304870
  0.6615660077279746  0.3124055449487032  0.5538794442304870
  0.7503621900980354  0.8124055449487031  0.0538794442304870
