 Y Mo  N 
 1.0000000000000000
     5.6545810236232592    0.0000000000000000    0.0000000000000000
     0.0000000000000000    5.3693341680810009    0.0000000000000000
     0.0000000000000000    0.0000000000000000    7.7677668422943267
 Y   Mo  N  
   4   4  12
Direct
  0.9339461483695075  0.0137817379270260  0.3206345179488539
  0.3018384451085226  0.5137817379270260  0.8206345179488539
  0.4339461483695074  0.5413452137810779  0.3206345179488539
 -0.1981615548914772  1.0413452137810777  0.8206345179488539
  0.8325105363361587  0.5416998005822931  0.5932837547864770
  0.4032740571418715  0.0416998005822932  0.0932837547864765
  0.3325105363361585  1.0134271511258106  0.5932837547864770
 -0.0967259428581287  0.5134271511258176  0.0932837547864765
  0.0590023012104053  0.2236423607837849  0.0220441069349350
  0.1767822922676245  0.7236423607837850  0.5220441069349353
  0.3445017106952121  1.1215442670092486  0.3211281943750638
  0.8912828827828178  0.6215442670092485  0.8211281943750636
  0.5590023012104052  0.3314845909243189  0.0220441069349350
  0.6767822922676244  0.8314845909243190  0.5220441069349353
  0.3912828827828180 -0.0664173153011447  0.8211281943750636
 -0.1554982893047881  0.4335826846988554  0.3211281943750638
  0.0734942055539847  0.2243457561900328  0.6208997391039550
  0.1622903879240452  0.7243457561900328  0.1208997391039551
  0.5734942055539847  0.3307811955180711  0.6208997391039550
  0.6622903879240454  0.8307811955180711  0.1208997391039551
