 Y Mo  N 
 1.0000000000000000
     5.6545810236232592    0.0000000000000000    0.0000000000000000
     0.0000000000000000    5.3693341680810009    0.0000000000000000
     0.0000000000000000    0.0000000000000000    7.7677668422943267
 Y   Mo  N  
   4   4  12
Direct
  0.9339461483695075  0.0137817379270260  0.3206345179488539
  0.3899102472825123  0.5137817379270260  0.8206345179488539
  0.4339461483695074  0.5229695632117101  0.3206345179488539
 -0.1100897527174877  1.0229695632117097  0.8206345179488539
  0.8765464374231536  0.5325119752976069  0.5781842635613951
  0.4473099582288662  0.0325119752976093  0.0781842635613947
  0.3765464374231534  1.0042393258411266  0.5781842635613951
 -0.0526900417711338  0.5042393258411314  0.0781842635613947
  0.1030382022974002  0.2144545354991010  0.0544377142775474
  0.2208181933546194  0.7144545354991010  0.5544377142775476
  0.4041313358114088  1.0497025809544340  0.3207990767575905
  0.9197250598406108  0.5497025809544338  0.8207990767575903
  0.6030382022974001  0.3222967656396350  0.0544377142775474
  0.7208181933546193  0.8222967656396351  0.5544377142775476
  0.4197250598406109 -0.0129512798156978  0.8207990767575903
 -0.0958686641885913  0.4870487201843022  0.3207990767575905
  0.1175301066409795  0.2151579309053489  0.5873895916672210
  0.2063262890110401  0.7151579309053490  0.0873895916672211
  0.6175301066409795  0.3215933702333871  0.5873895916672210
  0.7063262890110402  0.8215933702333872  0.0873895916672211
