 Y Mo  N 
 1.0000000000000000
     5.6545810236232592    0.0000000000000000    0.0000000000000000
     0.0000000000000000    5.3693341680810009    0.0000000000000000
     0.0000000000000000    0.0000000000000000    7.7677668422943267
 Y   Mo  N  
   4   4  12
Direct
  0.9339461483695075  0.0137817379270260  0.3206345179488538
  0.5660538516304925  0.5137817379270260  0.8206345179488539
  0.4339461483695075  0.4862182620729740  0.3206345179488538
  0.0660538516304925  0.9862182620729740  0.8206345179488539
  0.9646182395971437  0.5141363247282342  0.5479852811112311
  0.5353817604028563  0.0141363247282413  0.0479852811112309
  0.4646182395971437  0.9858636752717587  0.5479852811112311
  0.0353817604028563  0.4858636752717588  0.0479852811112309
  0.1911100044713905  0.1960788849297330  0.1192249289627725
  0.3088899955286095  0.6960788849297330  0.6192249289627727
  0.5233905860438028  0.9060192088448035  0.3201408415226439
  0.9766094139561973  0.4060192088448034  0.8201408415226441
  0.6911100044713905  0.3039211150702670  0.1192249289627725
  0.8088899955286095  0.8039211150702670  0.6192249289627727
  0.4766094139561972  0.0939807911551966  0.8201408415226441
  0.0233905860438028  0.5939807911551966  0.3201408415226439
  0.2056019088149696  0.1967822803359809  0.5203692967937528
  0.2943980911850304  0.6967822803359809  0.0203692967937528
  0.7056019088149696  0.3032177196640191  0.5203692967937528
  0.7943980911850305  0.8032177196640192  0.0203692967937528
