 Y Mo  N 
 1.0000000000000000
     5.6545810236232592    0.0000000000000000    0.0000000000000000
     0.0000000000000000    5.3693341680810009    0.0000000000000000
     0.0000000000000000    0.0000000000000000    7.7677668422943267
 Y   Mo  N  
   4   4  12
Direct
  0.9339461483695075  0.0137817379270260  0.3206345179488538
  0.5220179505434974  0.5137817379270260  0.8206345179488539
  0.4339461483695075  0.4954060873576580  0.3206345179488538
  0.0220179505434975  0.9954060873576579  0.8206345179488539
  0.9426002890536461  0.5187302373705773  0.5555350267237721
  0.5133638098593588  0.0187302373705833  0.0555350267237719
  0.4426002890536461  0.9904575879141007  0.5555350267237721
  0.0133638098593588  0.4904575879141019  0.0555350267237719
  0.1690920539278929  0.2006727975720750  0.1030281252914662
  0.2868720449851120  0.7006727975720750  0.6030281252914664
  0.4935757734857044  0.9419400518722110  0.3203054003313806
  0.9623883254273006  0.4419400518722110  0.8203054003313807
  0.6690920539278928  0.3085150277126090  0.1030281252914662
  0.7868720449851120  0.8085150277126089  0.6030281252914664
  0.4623883254273006  0.0672477734124730  0.8203054003313807
 -0.0064242265142957  0.5672477734124730  0.3203054003313806
  0.1835839582714721  0.2013761929783229  0.5371243705121198
  0.2723801406415329  0.7013761929783229  0.0371243705121199
  0.6835839582714721  0.3078116323063611  0.5371243705121198
  0.7723801406415328  0.8078116323063611  0.0371243705121199
