 Y Mo  N 
 1.0000000000000000
     5.6545810236232592    0.0000000000000000    0.0000000000000000
     0.0000000000000000    5.3693341680810009    0.0000000000000000
     0.0000000000000000    0.0000000000000000    7.7677668422943267
 Y   Mo  N  
   4   4  12
Direct
  0.9339461483695075  0.0137817379270260  0.3206345179488539
  0.3458743461955172  0.5137817379270260  0.8206345179488539
  0.4339461483695074  0.5321573884963940  0.3206345179488539
 -0.1541256538044827  1.0321573884963937  0.8206345179488539
  0.8545284868796560  0.5371058879399500  0.5857340091739360
  0.4252920076853687  0.0371058879399513  0.0857340091739357
  0.3545284868796558  1.0088332384834686  0.5857340091739360
 -0.0747079923146314  0.5088332384834745  0.0857340091739357
  0.0810202517539026  0.2190484481414430  0.0382409106062411
  0.1988002428111218  0.7190484481414430  0.5382409106062414
  0.3743165232533103  1.0856234239818414  0.3209636355663272
  0.9055039713117141  0.5856234239818414  0.8209636355663269
  0.5810202517539026  0.3268906782819769  0.0382409106062411
  0.6988002428111217  0.8268906782819770  0.5382409106062414
  0.4055039713117143 -0.0396842975584214  0.8209636355663269
 -0.1256834767466899  0.4603157024415787  0.3209636355663272
  0.0955121560974820  0.2197518435476909  0.6041446653855881
  0.1843083384675425  0.7197518435476908  0.1041446653855882
  0.5955121560974820  0.3261872828757291  0.6041446653855881
  0.6843083384675427  0.8261872828757292  0.1041446653855882
