 Y Mo  N 
 1.0000000000000000
     5.6545810236232592    0.0000000000000000    0.0000000000000000
     0.0000000000000000    5.3693341680810009    0.0000000000000000
     0.0000000000000000    0.0000000000000000    7.7677668422943267
 Y   Mo  N  
   4   4  12
Direct
  0.9339461483695075  0.0137817379270260  0.3206345179488539
  0.4339461483695076  0.5137817379270260  0.8206345179488539
  0.4339461483695074  0.5137817379270260  0.3206345179488539
 -0.0660538516304924  1.0137817379270258  0.8206345179488539
  0.8985643879666512  0.5279180626552636  0.5706345179488540
  0.4693279087723639  0.0279180626552673  0.0706345179488537
  0.3985643879666511  0.9996454131987847  0.5706345179488540
 -0.0306720912276362  0.4996454131987882  0.0706345179488537
  0.1250561528408979  0.2098606228567590  0.0706345179488537
  0.2428361438981170  0.7098606228567590  0.5706345179488540
  0.4339461483695075  1.0137817379270260  0.3206345179488539
  0.9339461483695075  0.5137817379270260  0.8206345179488539
  0.6250561528408979  0.3177028529972930  0.0706345179488537
  0.7428361438981169  0.8177028529972930  0.5706345179488540
  0.4339461483695076  0.0137817379270260  0.8206345179488539
 -0.0660538516304926  0.5137817379270261  0.3206345179488539
  0.1395480571844772  0.2105640182630069  0.5706345179488539
  0.2283442395545378  0.7105640182630069  0.0706345179488539
  0.6395480571844772  0.3169994575910451  0.5706345179488539
  0.7283442395545380  0.8169994575910451  0.0706345179488539
