Nb10 N12                                
   1.0000000000000000     
     2.6071686836784456   -4.5157502345643117   -0.0000000000000000
     2.6071686836784456    4.5157502345643117   -0.0000000000000000
     0.0000000000000000   -0.0000000000000000   10.3931574927992827
   Nb   N 
    10    12
Direct
  0.3333330000000032  0.6666669999999968  0.5000000000000000
  0.6666669999999968  0.3333330000000032  0.0000000000000000
  0.6666669999999968  0.3333330000000032  0.5000000000000000
  0.3333330000000032  0.6666669999999968  0.0000000000000000
  0.6752223903475851  0.0000000000000000  0.7500000000000000
  0.6752223903475851  0.6752223903475851  0.2500000000000000
  0.0000000000000000  0.3247776096524149  0.2500000000000000
  0.0000000000000000  0.6752223903475851  0.7500000000000000
  0.3247776096524149  0.3247776096524149  0.7500000000000000
  0.3247776096524149  0.0000000000000000  0.2500000000000000
  0.3402559590327812  0.3402559590327812  0.3779921335187808
  0.6597440409672188  0.0000000000000000  0.3779921335187808
  0.0000000000000000  0.6597440409672188  0.3779921335187808
  0.0000000000000000  0.3402569590327786  0.8779931335187783
  0.6597430409672214  0.0000000000000000  0.1220068664812217
  0.6597430409672214  0.6597430409672214  0.8779931335187783
  0.3402569590327786  0.0000000000000000  0.8779931335187783
  0.6597440409672188  0.6597440409672188  0.6220078664812192
  0.0000000000000000  0.3402559590327812  0.6220078664812192
  0.0000000000000000  0.6597430409672214  0.1220068664812217
  0.3402559590327812  0.0000000000000000  0.6220078664812192
  0.3402569590327786  0.3402569590327786  0.1220068664812217

  0.00000000E+00  0.00000000E+00  0.00000000E+00
  0.00000000E+00  0.00000000E+00  0.00000000E+00
  0.00000000E+00  0.00000000E+00  0.00000000E+00
  0.00000000E+00  0.00000000E+00  0.00000000E+00
  0.00000000E+00  0.00000000E+00  0.00000000E+00
  0.00000000E+00  0.00000000E+00  0.00000000E+00
  0.00000000E+00  0.00000000E+00  0.00000000E+00
  0.00000000E+00  0.00000000E+00  0.00000000E+00
  0.00000000E+00  0.00000000E+00  0.00000000E+00
  0.00000000E+00  0.00000000E+00  0.00000000E+00
  0.00000000E+00  0.00000000E+00  0.00000000E+00
  0.00000000E+00  0.00000000E+00  0.00000000E+00
  0.00000000E+00  0.00000000E+00  0.00000000E+00
  0.00000000E+00  0.00000000E+00  0.00000000E+00
  0.00000000E+00  0.00000000E+00  0.00000000E+00
  0.00000000E+00  0.00000000E+00  0.00000000E+00
  0.00000000E+00  0.00000000E+00  0.00000000E+00
  0.00000000E+00  0.00000000E+00  0.00000000E+00
  0.00000000E+00  0.00000000E+00  0.00000000E+00
  0.00000000E+00  0.00000000E+00  0.00000000E+00
  0.00000000E+00  0.00000000E+00  0.00000000E+00
  0.00000000E+00  0.00000000E+00  0.00000000E+00
