Hf2                                     
   1.0000000000000000     
     1.5991404775514901   -2.7697923593393123   -0.0000000000000000
     1.5991404775514901    2.7697923593393123   -0.0000000000000000
    -0.0000000000000000   -0.0000000000000000    5.0519653205098045
   Hf
     2
Direct
  0.3333330000000032  0.6666669999999968  0.7500000000000000
  0.6666669999999968  0.3333330000000032  0.2500000000000000

  0.00000000E+00  0.00000000E+00  0.00000000E+00
  0.00000000E+00  0.00000000E+00  0.00000000E+00
