Mo1                                     
   1.0000000000000000     
    -1.5673741275542541    1.5673741275542541    1.5673741275542541
     1.5673741275542541   -1.5673741275542541    1.5673741275542541
     1.5673741275542541    1.5673741275542541   -1.5673741275542541
   Mo
     1
Direct
  0.0000000000000000  0.0000000000000000  0.0000000000000000

  0.00000000E+00  0.00000000E+00  0.00000000E+00
