Nb4 Sn8                                 
   1.0000000000000000     
    -0.0000000000000000    4.9129157825429939    9.5603402005515310
     2.8376832633869888   -0.0000000000000001    9.5603402005515221
     2.8376832633869533    4.9129157825430143    0.0000000000000000
   Nb   Sn
     4     8
Direct
  0.6228222356944784  0.6228222356944784  0.8771777643055216
  0.8771777643055216  0.8771777643055216  0.6228222356944784
  0.6271777643055216  0.6271777643055145  0.3728222356944855
  0.3728222356944855  0.3728222356944855  0.6271777643055216
  0.5814025260685014  0.9185974739314986  0.5814025260685014
  0.9185974739314986  0.5814025260685014  0.9185974739314986
  0.6685974739314986  0.3314025260685156  0.6685974739314986
  0.3314025260685156  0.6685974739314986  0.3314025260685156
  0.3331279544630306  0.3331279544630306  0.1668720455369694
  0.1668720455369694  0.1668720455369694  0.3331279544630377
  0.9168720455369836  0.9168720455369694  0.0831279544630306
  0.0831279544630306  0.0831279544630306  0.9168720455369765

  0.00000000E+00  0.00000000E+00  0.00000000E+00
  0.00000000E+00  0.00000000E+00  0.00000000E+00
  0.00000000E+00  0.00000000E+00  0.00000000E+00
  0.00000000E+00  0.00000000E+00  0.00000000E+00
  0.00000000E+00  0.00000000E+00  0.00000000E+00
  0.00000000E+00  0.00000000E+00  0.00000000E+00
  0.00000000E+00  0.00000000E+00  0.00000000E+00
  0.00000000E+00  0.00000000E+00  0.00000000E+00
  0.00000000E+00  0.00000000E+00  0.00000000E+00
  0.00000000E+00  0.00000000E+00  0.00000000E+00
  0.00000000E+00  0.00000000E+00  0.00000000E+00
  0.00000000E+00  0.00000000E+00  0.00000000E+00
