N8                                      
   1.0000000000000000     
     6.0159299497366669    0.0000000000000000   -0.0000000000000000
     0.0000000000000000    6.0159299497366669    0.0000000000000000
    -0.0000000000000000   -0.0000000000000000    6.0159299497366669
   N 
     8
Direct
  0.0528423994602107  0.0528423994602107  0.0528423994602107
  0.4471576005397893  0.9471576005397893  0.5528423994602107
  0.5528423994602107  0.4471576005397893  0.9471576005397893
  0.9471576005397893  0.5528423994602107  0.4471576005397893
  0.9471576005397822  0.9471576005397893  0.9471576005397893
  0.5528423994602107  0.0528423994602107  0.4471576005397893
  0.4471576005397893  0.5528423994602107  0.0528423994602107
  0.0528423994602107  0.4471576005397893  0.5528423994602107

  0.00000000E+00  0.00000000E+00  0.00000000E+00
  0.00000000E+00  0.00000000E+00  0.00000000E+00
  0.00000000E+00  0.00000000E+00  0.00000000E+00
  0.00000000E+00  0.00000000E+00  0.00000000E+00
  0.00000000E+00  0.00000000E+00  0.00000000E+00
  0.00000000E+00  0.00000000E+00  0.00000000E+00
  0.00000000E+00  0.00000000E+00  0.00000000E+00
  0.00000000E+00  0.00000000E+00  0.00000000E+00
