Zr4 N2                                  
   1.0000000000000000     
     5.3882199813304643    0.0000000000000000    0.0000000000000000
     0.0000000000000000    5.3882199813304643    0.0000000000000000
     0.0000000000000000    0.0000000000000000    3.2870059627823656
   Zr   N 
     4     2
Direct
  0.2970155241039123  0.2970155241039123  0.0000000000000000
  0.7029844758960877  0.7029844758960877  0.0000000000000000
  0.2029844758960877  0.7970155241039123  0.5000000000000000
  0.7970155241039123  0.2029844758960877  0.5000000000000000
  0.0000000000000000  0.0000000000000000  0.0000000000000000
  0.5000000000000000  0.5000000000000000  0.5000000000000000

  0.00000000E+00  0.00000000E+00  0.00000000E+00
  0.00000000E+00  0.00000000E+00  0.00000000E+00
  0.00000000E+00  0.00000000E+00  0.00000000E+00
  0.00000000E+00  0.00000000E+00  0.00000000E+00
  0.00000000E+00  0.00000000E+00  0.00000000E+00
  0.00000000E+00  0.00000000E+00  0.00000000E+00
