Nb1                                     
   1.0000000000000000     
    -1.6522874933810736    1.6522874933810736    1.6522874933810736
     1.6522874933810736   -1.6522874933810736    1.6522874933810736
     1.6522874933810736    1.6522874933810736   -1.6522874933810736
   Nb
     1
Direct
  0.0000000000000000  0.0000000000000000  0.0000000000000000

  0.00000000E+00  0.00000000E+00  0.00000000E+00
