V4 Sn8                                  
   1.0000000000000000     
     0.0026092095894981    4.7030613613334094    9.2894949824161905
     2.7557274185406526    0.0023938002018682    9.2894109700924652
     2.7527400033240168    4.7004206149641323    0.0021187627509240
   V    Sn
     4     8
Direct
  0.8777114682598750  0.8778107231044388  0.6222742286620289
  0.6223128914218989  0.6223082533832383  0.8775321331193595
  0.3722876526432017  0.3721888216911253  0.6277263546679706
  0.6276877237470657  0.6276921180055126  0.3724680987609190
  0.9146155918691079  0.5853471804324570  0.9146969311044657
  0.5850782408040729  0.9149050834598356  0.5852497506054277
  0.3353845083587004  0.6646528304144397  0.3353054671844333
  0.6649217584507028  0.3350950352027766  0.6647474943652583
  0.1663727103116770  0.1661792721615782  0.3337194229067393
  0.3338441292960681  0.3337868657128382  0.1662816483497309
  0.0836275635810111  0.0838208830221561  0.9162801520950907
  0.9161557612566256  0.9162129334095965  0.0837183181786045

  0.00000000E+00  0.00000000E+00  0.00000000E+00
  0.00000000E+00  0.00000000E+00  0.00000000E+00
  0.00000000E+00  0.00000000E+00  0.00000000E+00
  0.00000000E+00  0.00000000E+00  0.00000000E+00
  0.00000000E+00  0.00000000E+00  0.00000000E+00
  0.00000000E+00  0.00000000E+00  0.00000000E+00
  0.00000000E+00  0.00000000E+00  0.00000000E+00
  0.00000000E+00  0.00000000E+00  0.00000000E+00
  0.00000000E+00  0.00000000E+00  0.00000000E+00
  0.00000000E+00  0.00000000E+00  0.00000000E+00
  0.00000000E+00  0.00000000E+00  0.00000000E+00
  0.00000000E+00  0.00000000E+00  0.00000000E+00
