 Y  W  N 
 1.0000000000000000
     7.8323586658167326    0.0000000000000000    0.0000824133770224
     0.0000000000000000    7.7412679372702247    0.0000000000000000
    -7.5704082502473984    0.0000000000000000    7.8265974072100821
 Y   W   N  
   8   8  24
Direct
  0.1892878940002660  0.5002291128750187  0.2627390423151255
  0.1892878940002660  0.5005345967083769  0.7627390423151255
  0.6922380187650936  0.5002727973228218  0.2575296005202598
  0.6922380187650937  0.5004909122605739  0.7575296005202599
  0.2675739802205924  0.0002194090371480  0.7951957609717679
  0.2675739802205923  1.0005443005462478  0.2951957609717678
  0.7705036297856255  0.0002693310641177  0.8033478371424990
  0.7705036297856253  1.0004943785192777  0.3033478371424989
  0.7260634285466787  0.2543183654248437  0.5320266008277321
  0.7260634285466785  0.7464453441585519  1.0320266008277319
  0.2335370870028942  0.7540920584892062  0.5356427740051284
  0.2335370870028942  0.2466716510941893  1.0356427740051284
  0.2335844374409417  0.7538207633110048  1.0359557797338992
  0.2335844374409421  0.2469429462723909  0.5359557797338993
  0.7261595272071049  0.2536338907676168  1.0321039883831256
  0.7261595272071049  0.7471298188157789  0.5321039883831257
  0.9475044069648260  0.7008892754080758  0.3275844568010504
  0.9475044069648261  0.2998744341753199 -0.1724155431989508
  0.2117220995718132  0.0005172539760281 -0.0135048834703686
  0.2117220995718134  1.0002464556073676  0.4864951165296318
  0.5132239780540363  0.8007829610618012  0.3107889184636751
  0.5132239780540364  0.1999807485215944  0.8107889184636752
  1.0125043618694682  0.7994594929132409  0.6100660683371578
  1.0125043618694678  0.2013042166701548  0.1100660683371576
  0.4466513778472969  0.7004150040622553  0.0274955681267665
  0.4466513778472968  0.3003487055211404  0.5274955681267665
  0.2467338966770219  0.5002004995468923  0.5667613117792011
  0.2467338966770216  0.5005632100365034  1.0667613117792007
  0.7131316143792149  0.0005211578181132  0.5499664686760258
  0.7131316143792148  1.0002425517652824  1.0499664686760257
  1.0124752511659667  0.7996091334279144  0.1101903410589975
  1.0124752511659665  0.2011545761554813  0.6101903410589974
  0.4466056114156288  0.3006792974490532  0.0273965618489759
  0.4466056114156287  0.7000844121343424  0.5273965618489819
  0.7481301098887703  0.5002339063094112  0.0047044929569635
  0.7481301098887699  0.5005298032739844  0.5047044929569631
  0.5133122394808398  0.2005683304038471  0.3107340918688826
  0.5133122394808397  0.8001953791795487  0.8107340918688825
  0.9473448497247867  0.7015512553614893 -0.1724133698426873
  0.9473448497247867  0.2992124542219065  0.3275866301573126
