 Y  W  N 
 1.0000000000000000
     7.8323586658167326    0.0000000000000000    0.0000824133770224
     0.0000000000000000    7.7412679372702247    0.0000000000000000
    -7.5704082502473984    0.0000000000000000    7.8265974072100821
 Y   W   N  
   8   8  24
Direct
  0.1892878940002660  0.5002291128750187  0.2627390423151255
  0.1892878940002660  0.4999236290416605  0.7627390423151255
  0.6863377692354383  0.5001854284272156  0.2679484841099911
  0.6863377692354384  0.4999673134894635  0.7679484841099912
  0.1110018077799400  0.0002388167128894  0.7302823236584833
  0.1110018077799401  0.9999139252037896  0.2302823236584833
  0.6080721582149071  0.0001888946859196  0.7221302474877522
  0.6080721582149071  0.9999638472307596  0.2221302474877523
  0.6525123594538537  0.2540128815914854  0.4934514838025190
  0.6525123594538536  0.7461398603251937  0.9934514838025189
  0.1450387009976382  0.7537865746558481  0.4898353106251226
  0.1450387009976382  0.2463661672608311  0.9898353106251228
  0.1449913505595905  0.7535152794776466  0.9895223048963520
  0.1449913505595907  0.2466374624390326  0.4895223048963521
  0.6524162607934276  0.2533284069342585  0.9933740962471256
  0.6524162607934276  0.7468243349824206  0.4933740962471258
  0.9319701765849033  0.6997789283009842  0.4980815227812744
  0.9319701765849033  0.3003738136156950 -0.0019184772187314
  0.1668536884287187  0.0002117701426699  0.0389829681006190
  0.1668536884287188  0.9999409717740093  0.5389829681006192
  0.3660714261310646  0.7991540090798827  0.4154120162930929
  0.3660714261310642  0.2009987328367965  0.9154120162930928
  0.8653518099464961  0.8004774772284431  0.7146891661665754
  0.8653518099464961  0.1996752646882362  0.2146891661665754
  0.4312309382757449  0.7012457715281311  0.1978914544729377
  0.4312309382757449  0.2989069703885482  0.6978914544729377
  0.1318418913235108  0.4998950157135340  0.4587167728510503
  0.1318418913235106  0.5002577262031451  0.9587167728510503
  0.6654441736213172  0.0002156739847550  0.4755116159542254
  0.6654441736213172  0.9999370679319243  0.9755116159542254
  0.8652635485196923  0.7998898953461904  0.2147439927613679
  0.8652635485196924  0.2002628465704888  0.7147439927613679
  0.4310713810357060  0.2995689503419617  0.1978936278292001
  0.4310713810357060  0.7005837915747174  0.6978936278292012
  0.6304456781117622  0.4999284224760530  0.0207735916732877
  0.6304456781117620  0.5002243194406262  0.5207735916732875
  0.3661005368345656  0.2008490923221231  0.4152877435712530
  0.3661005368345656  0.7993036495945561  0.9152877435712530
  0.9319244101532350  0.7001095202288969 -0.0020174834965162
  0.9319244101532349  0.3000432216877820  0.4979825165034837
