 Y  W  N 
 1.0000000000000000
     7.8323586658167326    0.0000000000000000    0.0000824133770224
     0.0000000000000000    7.7412679372702247    0.0000000000000000
    -7.5704082502473984    0.0000000000000000    7.8265974072100821
 Y   W   N  
   8   8  24
Direct
  0.1892878940002660  0.5002291128750187  0.2627390423151255
  0.1892878940002660  0.5006873386250559  0.7627390423151255
  0.6937130811475073  0.5002946395467234  0.2549248796228269
  0.6937130811475074  0.5006218119533514  0.7549248796228269
  0.3067170233307549  0.0002145571182126  0.8114241203000887
  0.3067170233307549  1.0007018943818622  0.3114241203000887
  0.8111114976783046  0.0002894401586673  0.8236522345561854
  0.8111114976783043  1.0006270113414071  0.3236522345561852
  0.7444511958198847  0.2543947363831832  0.5416703800840353
  0.7444511958198847  0.7465217151168915  1.0416703800840352
  0.2556616835042080  0.7541684294475458  0.5470946398501297
  0.2556616835042078  0.2467480220525289  1.0470946398501295
  0.2557327091612790  0.7538971342693443  1.0475641484432856
  0.2557327091612798  0.2470193172307305  0.5475641484432860
  0.7445953438105233  0.2537102617259563  1.0417864614171251
  0.7445953438105235  0.7472061897741185  0.5417864614171254
  0.9513879645598067  0.7011668621848487  0.2849601903059950
  0.9513879645598066  0.2997495893152262 -0.2150398096940051
  0.2229392023575866  0.0005936249343677 -0.0266268463631153
  0.2229392023575870  1.0003228265657071  0.4733731536368851
  0.5500121160347787  0.8011901990572809  0.2846331440063210
  0.5500121160347787  0.1997262524427939  0.7846331440063210
  1.0492924998502109  0.7992049968344405  0.5839102938798038
  1.0492924998502102  0.2017114546656344  0.0839102938798035
  0.4505064877401848  0.7002073121957865 -0.0151034034597757
  0.4505064877401847  0.3007091393042884  0.4848965965402242
  0.2754568980153995  0.5002768705052318  0.5937724465112385
  0.2754568980153990  0.5006395809948430  1.0937724465112382
  0.7250534745686892  0.0005975287764528  0.5685801818564756
  0.7250534745686891  1.0003189227236220  1.0685801818564755
  1.0492781768275345  0.7995389429483453  0.0840519281334052
  1.0492781768275345  0.2013775085517295  0.5840519281334050
  0.4504891690106095  0.3009568842258261 -0.0152277046460796
  0.4504891690106093  0.6999595672742487  0.4847722953539275
  0.7775512178330219  0.5003102772677508  0.0006872182778824
  0.7775512178330216  0.5006061742323240  0.5006872182778820
  0.5501151651424078  0.2004981399242780  0.2845956789432903
  0.5501151651424079  0.8004183115757969  0.7845956789432902
  0.9511999596176746  0.7019116891446374 -0.2150123414292296
  0.9511999596176747  0.2990047623554375  0.2849876585707704
