 Y  W  N 
 1.0000000000000000
     7.8323586658167326    0.0000000000000000    0.0000824133770224
     0.0000000000000000    7.7412679372702247    0.0000000000000000
    -7.5704082502473984    0.0000000000000000    7.8265974072100821
 Y   W   N  
   8   8  24
Direct
  0.1892878940002660  0.5002291128750187  0.2627390423151255
  0.1892878940002660  0.5000763709583396  0.7627390423151255
  0.6878128316178521  0.5002072706511171  0.2653437632125583
  0.6878128316178522  0.5000982131822411  0.7653437632125583
  0.1501448508901029  0.0002339647939541  0.7465106829868043
  0.1501448508901031  1.0000715190394043  0.2465106829868044
  0.6486800261075868  0.0002090037804692  0.7424346449014390
  0.6486800261075866  1.0000964800528891  0.2424346449014390
  0.6709001267270598  0.2540892525498250  0.5030952630588222
  0.6709001267270598  0.7462162312835333  1.0030952630588221
  0.1671632974989523  0.7538629456141875  0.5012871764701241
  0.1671632974989521  0.2464425382191706  1.0012871764701241
  0.1671396222799284  0.7535916504359862  1.0011306736057388
  0.1671396222799286  0.2467138333973722  0.5011306736057389
  0.6708520773968468  0.2534047778925980  1.0030565692811255
  0.6708520773968469  0.7469007059407603  0.5030565692811257
  0.9358537341798839  0.7000565150777571  0.4554572562862184
  0.9358537341798839  0.3002489687556012 -0.0445427437137863
  0.1780707912144923  0.0002881411010094  0.0258610052078721
  0.1780707912144925  1.0000173427323489  0.5258610052078724
  0.4028595641118075  0.7995612470753624  0.3892562418357385
  0.4028595641118073  0.2007442367579960  0.8892562418357384
  0.9021399479272391  0.8002229811496425  0.6885333917092210
  0.9021399479272389  0.2000825026837158  0.1885333917092210
  0.4350860481686329  0.7010380796616620  0.1552924828863949
  0.4350860481686328  0.2992674041716962  0.6552924828863949
  0.1605648926618886  0.4999713866718736  0.4857279075830880
  0.1605648926618884  0.5003340971614847  0.9857279075830879
  0.6773660338107917  0.0002920449430945  0.4941253291346756
  0.6773660338107916  1.0000134388902637  0.9941253291346754
  0.9020664741812610  0.7998197048666214  0.1886055798357753
  0.9020664741812608  0.2004857789667369  0.6886055798357752
  0.4349549386306867  0.2998465371187345  0.1552693613341440
  0.4349549386306867  0.7004589467146237  0.6552693613341464
  0.6598667860560142  0.5000047934343925  0.0167563169942067
  0.6598667860560139  0.5003006903989659  0.5167563169942063
  0.4029034624961341  0.2007789018425541  0.3891493306456603
  0.4029034624961341  0.7995265819908043  0.8891493306456603
  0.9357795200461230  0.7004699540120451 -0.0446164550830590
  0.9357795200461227  0.2998355298213132  0.4553835449169409
