 Y  W  N 
 1.0000000000000000
     7.8323586658167326    0.0000000000000000    0.0000824133770224
     0.0000000000000000    7.7412679372702247    0.0000000000000000
    -7.5704082502473984    0.0000000000000000    7.8265974072100821
 Y   W   N  
   8   8  24
Direct
  0.1892878940002660  0.5002291128750187  0.2627390423151255
  0.1892878940002660  0.5002291128750187  0.7627390423151255
  0.6892878940002660  0.5002291128750187  0.2627390423151255
  0.6892878940002661  0.5002291128750187  0.7627390423151255
  0.1892878940002660  0.0002291128750187  0.7627390423151255
  0.1892878940002660  1.0002291128750187  0.2627390423151255
  0.6892878940002661  0.0002291128750187  0.7627390423151256
  0.6892878940002660  1.0002291128750187  0.2627390423151255
  0.6892878940002661  0.2541656235081646  0.5127390423151255
  0.6892878940002660  0.7462926022418728  1.0127390423151255
  0.1892878940002661  0.7539393165725271  0.5127390423151255
  0.1892878940002660  0.2465189091775102  1.0127390423151255
  0.1892878940002660  0.7536680213943256  1.0127390423151255
  0.1892878940002663  0.2467902043557118  0.5127390423151257
  0.6892878940002660  0.2534811488509376  1.0127390423151255
  0.6892878940002660  0.7469770768990999  0.5127390423151256
  0.9397372917748648  0.7003341018545299  0.4128329897911627
  0.9397372917748645  0.3001241238955075 -0.0871670102088409
  0.1892878940002659  0.0003645120593490  0.0127390423151253
  0.1892878940002661  1.0000937136906884  0.5127390423151257
  0.4396477020925502  0.7999684850708420  0.3631004673783841
  0.4396477020925501  0.2004897406791954  0.8631004673783841
  0.9389280859079819  0.7999684850708420  0.6623776172518668
  0.9389280859079817  0.2004897406791955  0.1623776172518667
  0.4389411580615209  0.7008303877951931  0.1126935112998524
  0.4389411580615208  0.2996278379548442  0.6126935112998523
  0.1892878940002663  0.5000477576302131  0.5127390423151257
  0.1892878940002660  0.5004104681198244  1.0127390423151255
  0.6892878940002660  0.0003684159014341  0.5127390423151255
  0.6892878940002660  1.0000898098486033  1.0127390423151255
  0.9388693998428292  0.7997495143870523  0.1624671669101829
  0.9388693998428291  0.2007087113629850  0.6624671669101827
  0.4388384962256674  0.3001241238955075  0.1126450948390883
  0.4388384962256674  0.7003341018545298  0.6126450948390918
  0.6892878940002661  0.5000811643927321  0.0127390423151256
  0.6892878940002658  0.5003770613573054  0.5127390423151252
  0.4397063881577025  0.2007087113629851  0.3630109177200679
  0.4397063881577025  0.7997495143870523  0.8630109177200678
  0.9396346299390109  0.7008303877951931 -0.0872154266696015
  0.9396346299390108  0.2996278379548442  0.4127845733303984
