 Y  W  N 
 1.0000000000000000
     7.8323586658167326    0.0000000000000000    0.0000824133770224
     0.0000000000000000    7.7412679372702247    0.0000000000000000
    -7.5704082502473984    0.0000000000000000    7.8265974072100821
 Y   W   N  
   8   8  24
Direct
  0.1892878940002660  0.5002291128750187  0.2627390423151255
  0.1892878940002660  0.5003818547916977  0.7627390423151255
  0.6907629563826797  0.5002509550989203  0.2601343214176926
  0.6907629563826798  0.5003600125677963  0.7601343214176925
  0.2284309371104292  0.0002242609560834  0.7789674016434467
  0.2284309371104293  1.0003867067106331  0.2789674016434467
  0.7298957618929458  0.0002492219695682  0.7830434397288123
  0.7298957618929457  1.0003617456971481  0.2830434397288122
  0.7076756612734726  0.2542419944665041  0.5223828215714289
  0.7076756612734724  0.7463689732002123  1.0223828215714288
  0.2114124905015803  0.7540156875308668  0.5241909081601270
  0.2114124905015800  0.2465952801358497  1.0241909081601268
  0.2114361657206039  0.7537443923526652  1.0243474110245123
  0.2114361657206044  0.2468665753140513  0.5243474110245127
  0.7077237106036854  0.2535575198092772  1.0224215153491254
  0.7077237106036854  0.7470534478574393  0.5224215153491256
  0.9436208493698454  0.7006116886313029  0.3702087232961065
  0.9436208493698451  0.2999992790354137 -0.1297912767038960
  0.2005049967860395  0.0004408830176885 -0.0003829205776217
  0.2005049967860398  1.0001700846490280  0.4996170794223787
  0.4764358400732933  0.8003757230663215  0.3369446929210296
  0.4764358400732931  0.2002352446003949  0.8369446929210295
  0.9757162238887253  0.7997139889920415  0.6362218427945123
  0.9757162238887248  0.2008969786746751  0.1362218427945121
  0.4427962679544089  0.7006226959287243  0.0700945397133094
  0.4427962679544088  0.2999882717379923  0.5700945397133093
  0.2180108953386442  0.5001241285885527  0.5397501770471634
  0.2180108953386441  0.5004868390781638  1.0397501770471633
  0.7012097541897405  0.0004447868597737  0.5313527554955756
  0.7012097541897405  1.0001661808069429  1.0313527554955757
  0.9756723255043981  0.7996793239074833  0.1363287539845901
  0.9756723255043979  0.2009316437592332  0.6363287539845899
  0.4427220538206481  0.3004017106722804  0.0700208283440320
  0.4427220538206480  0.7002092569944361  0.5700208283440367
  0.7187090019445183  0.5001575353510717  0.0087217676360445
  0.7187090019445178  0.5004534323156449  0.5087217676360442
  0.4765093138192711  0.2006385208834160  0.3368725047944752
  0.4765093138192711  0.7999724467833006  0.8368725047944749
  0.9434897398318990  0.7011908215783412 -0.1298143982561445
  0.9434897398318988  0.2994201460883753  0.3701856017438554
