 Y  W  N                                
   1.0000000000000000     
     7.8323586658167326    0.0000000000000000    0.0000824133770224
     0.0000000000000000    7.7412679372702247    0.0000000000000000
    -7.5704082502473984    0.0000000000000000    7.8265974072100821
   Y    W    N 
     8     8    24
Direct
  0.1892878940002660  0.5002291128750187  0.2627390423151255
  0.1892878940002660  0.4997708871249813  0.7627390423151255
  0.6848627068530249  0.5001635862033140  0.2705532050074240
  0.6848627068530249  0.4998364137966860  0.7705532050074240
  0.0718587646697770  0.0002436686318248  0.7140539643301622
  0.0718587646697770  0.9997563313681752  0.2140539643301622
  0.5674642903222278  0.0001687855913701  0.7018258500740657
  0.5674642903222278  0.9998312144086299  0.2018258500740657
  0.6341245921806475  0.2539365106331459  0.4838077045462157
  0.6341245921806475  0.7460634893668541  0.9838077045462157
  0.1229141044963242  0.7537102036975085  0.4783834447801212
  0.1229141044963242  0.2462897963024915  0.9783834447801212
  0.1228430788392529  0.7534389085193069  0.9779139361869653
  0.1228430788392529  0.2465610914806931  0.4779139361869653
  0.6339804441900085  0.2532520359759189  0.9836916232131259
  0.6339804441900085  0.7467479640240811  0.4836916232131259
  0.9280866189899228  0.6995013415242113  0.5407057892763305
  0.9280866189899228  0.3004986584757887  0.0407057892763234
  0.1556365856429451  0.0001353991843303  0.0521049309933659
  0.1556365856429451  0.9998646008156697  0.5521049309933659
  0.3292832881503216  0.7987467710844030  0.4415677907504474
  0.3292832881503216  0.2012532289155970  0.9415677907504474
  0.8285636719657532  0.8007319733072435  0.7408449406239299
  0.8285636719657532  0.1992680266927565  0.2408449406239299
  0.4273758283828570  0.7014534633945999  0.2404904260594805
  0.4273758283828570  0.2985465366054001  0.7404904260594805
  0.1031188899851330  0.4998186447551944  0.4317056381190127
  0.1031188899851330  0.5001813552448056  0.9317056381190127
  0.6535223134318429  0.0001393030264154  0.4568979027737754
  0.6535223134318429  0.9998606969735846  0.9568979027737754
  0.8284606228581239  0.7999600858257594  0.2408824056869605
  0.8284606228581239  0.2000399141742406  0.7408824056869605
  0.4271878234407254  0.2992913635651888  0.2405178943242561
  0.4271878234407254  0.7007086364348112  0.7405178943242561
  0.6010245701675103  0.4998520515177134  0.0247908663523688
  0.6010245701675103  0.5001479484822866  0.5247908663523688
  0.3292976111729971  0.2009192828016921  0.4414261564968456
  0.3292976111729971  0.7990807171983079  0.9414261564968456
  0.9280693002603471  0.6997490864457490  0.0405814880900266
  0.9280693002603471  0.3002509135542510  0.5405814880900266

  0.00000000E+00  0.00000000E+00  0.00000000E+00
  0.00000000E+00  0.00000000E+00  0.00000000E+00
  0.00000000E+00  0.00000000E+00  0.00000000E+00
  0.00000000E+00  0.00000000E+00  0.00000000E+00
  0.00000000E+00  0.00000000E+00  0.00000000E+00
  0.00000000E+00  0.00000000E+00  0.00000000E+00
  0.00000000E+00  0.00000000E+00  0.00000000E+00
  0.00000000E+00  0.00000000E+00  0.00000000E+00
  0.00000000E+00  0.00000000E+00  0.00000000E+00
  0.00000000E+00  0.00000000E+00  0.00000000E+00
  0.00000000E+00  0.00000000E+00  0.00000000E+00
  0.00000000E+00  0.00000000E+00  0.00000000E+00
  0.00000000E+00  0.00000000E+00  0.00000000E+00
  0.00000000E+00  0.00000000E+00  0.00000000E+00
  0.00000000E+00  0.00000000E+00  0.00000000E+00
  0.00000000E+00  0.00000000E+00  0.00000000E+00
  0.00000000E+00  0.00000000E+00  0.00000000E+00
  0.00000000E+00  0.00000000E+00  0.00000000E+00
  0.00000000E+00  0.00000000E+00  0.00000000E+00
  0.00000000E+00  0.00000000E+00  0.00000000E+00
  0.00000000E+00  0.00000000E+00  0.00000000E+00
  0.00000000E+00  0.00000000E+00  0.00000000E+00
  0.00000000E+00  0.00000000E+00  0.00000000E+00
  0.00000000E+00  0.00000000E+00  0.00000000E+00
  0.00000000E+00  0.00000000E+00  0.00000000E+00
  0.00000000E+00  0.00000000E+00  0.00000000E+00
  0.00000000E+00  0.00000000E+00  0.00000000E+00
  0.00000000E+00  0.00000000E+00  0.00000000E+00
  0.00000000E+00  0.00000000E+00  0.00000000E+00
  0.00000000E+00  0.00000000E+00  0.00000000E+00
  0.00000000E+00  0.00000000E+00  0.00000000E+00
  0.00000000E+00  0.00000000E+00  0.00000000E+00
  0.00000000E+00  0.00000000E+00  0.00000000E+00
  0.00000000E+00  0.00000000E+00  0.00000000E+00
  0.00000000E+00  0.00000000E+00  0.00000000E+00
  0.00000000E+00  0.00000000E+00  0.00000000E+00
  0.00000000E+00  0.00000000E+00  0.00000000E+00
  0.00000000E+00  0.00000000E+00  0.00000000E+00
  0.00000000E+00  0.00000000E+00  0.00000000E+00
  0.00000000E+00  0.00000000E+00  0.00000000E+00
