Hf6 Sb6                                 
   1.0000000000000000     
     1.8782711438441495   -5.1669770462335407    0.0000009987950061
     1.8782711438441495    5.1669770462335407   -0.0000009987950061
     0.0000000000000000   -0.0000020002593027   13.8818836617344132
   Hf   Sb
     6     6
Direct
  0.3840202621182698  0.6159797378817302  0.2500000000000000
  0.6159807378817348  0.3840192621182652  0.7500000000000000
  0.9285561101089144  0.0714438898910856  0.6078549228981700
  0.0714438898910856  0.9285561101089144  0.3921450771018300
  0.0714438898910856  0.9285561101089144  0.1078549228981700
  0.9285561101089144  0.0714438898910856  0.8921450771018300
  0.6724460201233384  0.3275539798766616  0.2500000000000000
  0.3275539798766616  0.6724460201233384  0.7500000000000000
  0.6421365957359271  0.3578634042640729  0.5492953239828751
  0.3578634042640729  0.6421365957359271  0.4507046760171249
  0.3578634042640729  0.6421365957359271  0.0492953239828680
  0.6421365957359271  0.3578634042640729  0.9507046760171249

  0.00000000E+00  0.00000000E+00  0.00000000E+00
  0.00000000E+00  0.00000000E+00  0.00000000E+00
  0.00000000E+00  0.00000000E+00  0.00000000E+00
  0.00000000E+00  0.00000000E+00  0.00000000E+00
  0.00000000E+00  0.00000000E+00  0.00000000E+00
  0.00000000E+00  0.00000000E+00  0.00000000E+00
  0.00000000E+00  0.00000000E+00  0.00000000E+00
  0.00000000E+00  0.00000000E+00  0.00000000E+00
  0.00000000E+00  0.00000000E+00  0.00000000E+00
  0.00000000E+00  0.00000000E+00  0.00000000E+00
  0.00000000E+00  0.00000000E+00  0.00000000E+00
  0.00000000E+00  0.00000000E+00  0.00000000E+00
