Zr28 Sb16                               
   1.0000000000000000     
    11.1480999891079104    0.0000000000000000    0.0000000000000000
     0.0000000000000000    8.4742385056403631    0.0104354576226862
     0.0000000000000000    4.1198270622121607   10.2869382169806798
   Zr   Sb
    28    16
Direct
  0.9388718300034782  0.6066211789466394  0.8399401415537326
  0.5611281699965218  0.6066211789466394  0.3399401415537326
  0.2631364666942702  0.3388504215179964  0.9829430900131158
  0.2949823527713207  0.9857127181290153  0.9287218374427297
  0.7227061843171612  0.3540155243576137  0.8293196014337383
  0.0786905333679755  0.9888012666353774  0.7113556367735328
  0.9415674248531545  0.3626713298734643  0.6345720853053791
  0.0013930661141046  0.7964841775470290  0.0548583542430734
  0.2368635333057298  0.3388504215179964  0.4829430900131158
  0.2050176472286793  0.9857127181290153  0.4287218374427297
  0.7772938156828388  0.3540155243576137  0.3293196014337383
  0.4213094666320245  0.9888012666353774  0.2113556367735328
  0.5584325751468455  0.3626713298734643  0.1345720853053791
  0.4986069338858954  0.7964841775470290  0.5548583542430805
  0.5013930661141046  0.2035158224529710  0.4451416457569266
  0.4415674248531545  0.6373286701265357  0.8654279146946209
  0.5786905333679755  0.0111987333646226  0.7886443632264672
  0.2227061843171612  0.6459844756423863  0.6706803985662617
  0.7949823527713207  0.0142872818709847  0.5712781625572703
  0.7631364666942702  0.6611495784820036  0.5170569099868842
  0.9986069338858954  0.2035158224529710  0.9451416457569195
  0.0584325751468455  0.6373286701265357  0.3654279146946209
  0.9213094666320245  0.0111987333646226  0.2886443632264672
  0.2772938156828388  0.6459844756423863  0.1706803985662617
  0.7050176472286793  0.0142872818709847  0.0712781625572703
  0.7368635333057298  0.6611495784820036  0.0170569099868842
  0.4388718300034782  0.3933788210533606  0.6600598584462674
  0.0611281699965218  0.3933788210533606  0.1600598584462674
  0.6824721070086355  0.7146621278614518  0.7511305097398875
  0.8175278929913645  0.7146621278614518  0.2511305097398875
  0.3462153285760081  0.9871835105636180  0.6602796422310178
  0.4923232649245364  0.2254026847730870  0.9382578337547542
  0.6766840929751012  0.3209619109970134  0.5790978802515738
  0.1537846714239919  0.9871835105636180  0.1602796422310178
  0.0076767350754636  0.2254026847730870  0.4382578337547542
  0.1766840929751012  0.6790380890029866  0.9209021197484262
  0.8233159070248988  0.3209619109970134  0.0790978802515738
  0.9923232649245364  0.7745973152269130  0.5617421662452458
  0.3233159070248988  0.6790380890029866  0.4209021197484262
  0.5076767350754636  0.7745973152269130  0.0617421662452458
  0.1824721070086355  0.2853378721385482  0.7488694902601125
  0.3175278929913645  0.2853378721385482  0.2488694902601125
  0.8462153285760081  0.0128164894363820  0.8397203577689822
  0.6537846714239919  0.0128164894363820  0.3397203577689822

  0.00000000E+00  0.00000000E+00  0.00000000E+00
  0.00000000E+00  0.00000000E+00  0.00000000E+00
  0.00000000E+00  0.00000000E+00  0.00000000E+00
  0.00000000E+00  0.00000000E+00  0.00000000E+00
  0.00000000E+00  0.00000000E+00  0.00000000E+00
  0.00000000E+00  0.00000000E+00  0.00000000E+00
  0.00000000E+00  0.00000000E+00  0.00000000E+00
  0.00000000E+00  0.00000000E+00  0.00000000E+00
  0.00000000E+00  0.00000000E+00  0.00000000E+00
  0.00000000E+00  0.00000000E+00  0.00000000E+00
  0.00000000E+00  0.00000000E+00  0.00000000E+00
  0.00000000E+00  0.00000000E+00  0.00000000E+00
  0.00000000E+00  0.00000000E+00  0.00000000E+00
  0.00000000E+00  0.00000000E+00  0.00000000E+00
  0.00000000E+00  0.00000000E+00  0.00000000E+00
  0.00000000E+00  0.00000000E+00  0.00000000E+00
  0.00000000E+00  0.00000000E+00  0.00000000E+00
  0.00000000E+00  0.00000000E+00  0.00000000E+00
  0.00000000E+00  0.00000000E+00  0.00000000E+00
  0.00000000E+00  0.00000000E+00  0.00000000E+00
  0.00000000E+00  0.00000000E+00  0.00000000E+00
  0.00000000E+00  0.00000000E+00  0.00000000E+00
  0.00000000E+00  0.00000000E+00  0.00000000E+00
  0.00000000E+00  0.00000000E+00  0.00000000E+00
  0.00000000E+00  0.00000000E+00  0.00000000E+00
  0.00000000E+00  0.00000000E+00  0.00000000E+00
  0.00000000E+00  0.00000000E+00  0.00000000E+00
  0.00000000E+00  0.00000000E+00  0.00000000E+00
  0.00000000E+00  0.00000000E+00  0.00000000E+00
  0.00000000E+00  0.00000000E+00  0.00000000E+00
  0.00000000E+00  0.00000000E+00  0.00000000E+00
  0.00000000E+00  0.00000000E+00  0.00000000E+00
  0.00000000E+00  0.00000000E+00  0.00000000E+00
  0.00000000E+00  0.00000000E+00  0.00000000E+00
  0.00000000E+00  0.00000000E+00  0.00000000E+00
  0.00000000E+00  0.00000000E+00  0.00000000E+00
  0.00000000E+00  0.00000000E+00  0.00000000E+00
  0.00000000E+00  0.00000000E+00  0.00000000E+00
  0.00000000E+00  0.00000000E+00  0.00000000E+00
  0.00000000E+00  0.00000000E+00  0.00000000E+00
  0.00000000E+00  0.00000000E+00  0.00000000E+00
  0.00000000E+00  0.00000000E+00  0.00000000E+00
  0.00000000E+00  0.00000000E+00  0.00000000E+00
  0.00000000E+00  0.00000000E+00  0.00000000E+00
