Tl3                                     
   1.0000000000000000     
     8.3401470226314807   -1.7772400700359297    0.0330173962164141
     8.3401470226314807    1.7772400700359265    0.0330173962164142
     7.9493384563600671   -0.0000000000000005    3.0863794036816703
   Tl
     3
Direct
  0.0000000000000000  0.0000000000000000  0.0000000000000000
  0.2208325363716739  0.2208325363716739  0.2208325363716739
  0.7791674636283261  0.7791674636283261  0.7791674636283261

  0.00000000E+00  0.00000000E+00  0.00000000E+00
  0.00000000E+00  0.00000000E+00  0.00000000E+00
  0.00000000E+00  0.00000000E+00  0.00000000E+00
