Sc  W  N 
 1.0000000000000000
     7.5634807225118070    0.0000000000000000    0.0000000000000000
     0.0000000000000000    5.5423189635722974    0.0000000000000000
     0.0000000000000000    0.0000000000000000    5.2127372625346222
 Sc  W   N  
   4   4  12
Direct
  0.0000000000000000  0.8211731764496975  0.9845855707384032
  0.5000000000000000  0.2262756078501009  0.4845855707384032
  0.0000000000000000  0.3237616703451518  0.5058176319630263
  0.5000000000000000  0.7236871139546514  0.0058176319630263
  0.7534357489490945  0.7773573055413981  0.5025559390845444
  0.7465642510509056  0.2700914787584003  0.0025559390845444
  0.2534357489490944  0.2700914787584003  0.0025559390845444
  0.2465642510509056  0.7773573055413981  0.5025559390845444
  0.0000000000000000  0.7446322101404401  0.4090255574843886
  0.5000000000000000  0.3028165741593583  0.9090255574843884
  0.0000000000000000  0.2451280708151914  0.0747168070741205
  0.5000000000000000  0.8023207134846070  0.5747168070741205
  0.7923060229957670  0.5820759037371465  0.8059463110773635
  0.7076939770042330  0.4653728805626520  0.3059463110773635
  0.2923060229957670  0.4653728805626520  0.3059463110773635
  0.2076939770042330  0.5820759037371465  0.8059463110773635
  0.7052436365194623  0.9644441717564950  0.1785702507721254
  0.7947563634805377  0.0830046125433034  0.6785702507721254
  0.2052436365194623  0.0830046125433034  0.6785702507721254
  0.2947563634805377  0.9644441717564950  0.1785702507721254
