Sc  W  N                                
   1.0000000000000000     
     7.5634807225118070    0.0000000000000000    0.0000000000000000
     0.0000000000000000    5.5423189635722974    0.0000000000000000
     0.0000000000000000    0.0000000000000000    5.2127372625346222
   Sc   W    N 
     4     4    12
Direct
  0.0000000000000000  0.8211731764496975  0.9845855707384032
  0.5000000000000000  0.1788268235503025  0.4845855707384032
  0.0000000000000000  0.3250559172928789  0.5164336625753378
  0.5000000000000000  0.6749440827071282  0.0164336625753378
  0.7534357489490944  0.7554493700872484  0.5115411232576150
  0.7465642510509056  0.2445506299127516  0.0115411232576150
  0.2534357489490944  0.2445506299127516  0.0115411232576150
  0.2465642510509056  0.7554493700872484  0.5115411232576150
  0.0000000000000000  0.7063617269858113  0.3712455508573811
  0.5000000000000000  0.2936382730141887  0.8712455508573811
  0.0000000000000000  0.2071055179979382  0.1197824252419792
  0.5000000000000000  0.7928944820020618  0.6197824252419792
  0.8140716196148432  0.5581193343857080  0.8097826661705341
  0.6859283803851568  0.4418806656142920  0.3097826661705341
  0.3140716196148432  0.4418806656142920  0.3097826661705341
  0.1859283803851568  0.5581193343857080  0.8097826661705341
  0.6834780399003861  0.9404876024050566  0.1824066058652960
  0.8165219600996139  0.0595123975949434  0.6824066058652960
  0.1834780399003861  0.0595123975949434  0.6824066058652960
  0.3165219600996139  0.9404876024050566  0.1824066058652960

  0.00000000E+00  0.00000000E+00  0.00000000E+00
  0.00000000E+00  0.00000000E+00  0.00000000E+00
  0.00000000E+00  0.00000000E+00  0.00000000E+00
  0.00000000E+00  0.00000000E+00  0.00000000E+00
  0.00000000E+00  0.00000000E+00  0.00000000E+00
  0.00000000E+00  0.00000000E+00  0.00000000E+00
  0.00000000E+00  0.00000000E+00  0.00000000E+00
  0.00000000E+00  0.00000000E+00  0.00000000E+00
  0.00000000E+00  0.00000000E+00  0.00000000E+00
  0.00000000E+00  0.00000000E+00  0.00000000E+00
  0.00000000E+00  0.00000000E+00  0.00000000E+00
  0.00000000E+00  0.00000000E+00  0.00000000E+00
  0.00000000E+00  0.00000000E+00  0.00000000E+00
  0.00000000E+00  0.00000000E+00  0.00000000E+00
  0.00000000E+00  0.00000000E+00  0.00000000E+00
  0.00000000E+00  0.00000000E+00  0.00000000E+00
  0.00000000E+00  0.00000000E+00  0.00000000E+00
  0.00000000E+00  0.00000000E+00  0.00000000E+00
  0.00000000E+00  0.00000000E+00  0.00000000E+00
  0.00000000E+00  0.00000000E+00  0.00000000E+00
