Sc  W  N 
 1.0000000000000000
     7.5634807225118070    0.0000000000000000    0.0000000000000000
     0.0000000000000000    5.5423189635722974    0.0000000000000000
     0.0000000000000000    0.0000000000000000    5.2127372625346222
 Sc  W   N  
   4   4  12
Direct
  0.0000000000000000  0.8211731764496975  0.9845855707384032
  0.5000000000000000  0.4635195293490925  0.4845855707384032
  0.0000000000000000  0.3172904356065160  0.4527374789014688
  0.5000000000000000  0.9674022701922665 -0.0472625210985312
  0.7534357489490945  0.8868969828121465  0.4576300182191917
  0.7465642510509056  0.3977957229866433 -0.0423699817808083
  0.2534357489490944  0.3977957229866433 -0.0423699817808083
  0.2465642510509055  0.8868969828121465  0.4576300182191917
  0.0000000000000000  0.9359846259135836  0.5979255906194256
  0.5000000000000000  0.3487080798852062  1.0979255906194254
  0.0000000000000000  0.4352408349014567 -0.1506112837651726
  0.5000000000000000  0.8494518708973331  0.3493887162348273
  0.6834780399003861  0.7018587504943383  0.7867645356115105
  0.8165219600996139  0.5828339553044516  0.2867645356115105
  0.1834780399003861  0.5828339553044516  0.2867645356115105
  0.3165219600996139  0.7018587504943383  0.7867645356115105
  0.8140716196148432  1.0842270185136869  0.1593884753062726
  0.6859283803851568  0.2004656872851030  0.6593884753062726
  0.3140716196148432  0.2004656872851030  0.6593884753062726
  0.1859283803851568  1.0842270185136869  0.1593884753062726
