Sc  W  N 
 1.0000000000000000
     7.5634807225118070    0.0000000000000000    0.0000000000000000
     0.0000000000000000    5.5423189635722974    0.0000000000000000
     0.0000000000000000    0.0000000000000000    5.2127372625346222
 Sc  W   N  
   4   4  12
Direct
  0.0000000000000000  0.8211731764496975  0.9845855707384032
  0.5000000000000000  0.3211731764496975  0.4845855707384032
  0.0000000000000000  0.3211731764496975  0.4845855707384033
  0.5000000000000000  0.8211731764496975 -0.0154144292615967
  0.7534357489490945  0.8211731764496975  0.4845855707384034
  0.7465642510509056  0.3211731764496975 -0.0154144292615967
  0.2534357489490944  0.3211731764496975 -0.0154144292615967
  0.2465642510509056  0.8211731764496975  0.4845855707384034
  0.0000000000000000  0.8211731764496975  0.4845855707384034
  0.5000000000000000  0.3211731764496975  0.9845855707384032
  0.0000000000000000  0.3211731764496975 -0.0154144292615967
  0.5000000000000000  0.8211731764496975  0.4845855707384033
  0.7487748297576147  0.6299890424400232  0.7982736008910223
  0.7512251702423853  0.5123573104593718  0.2982736008910223
  0.2487748297576147  0.5123573104593718  0.2982736008910223
  0.2512251702423853  0.6299890424400232  0.7982736008910223
  0.7487748297576147  1.0123573104593717  0.1708975405857843
  0.7512251702423853  0.1299890424400232  0.6708975405857843
  0.2487748297576146  0.1299890424400232  0.6708975405857843
  0.2512251702423854  1.0123573104593717  0.1708975405857843
