Sc  W  N 
 1.0000000000000000
     7.5634807225118070    0.0000000000000000    0.0000000000000000
     0.0000000000000000    5.5423189635722974    0.0000000000000000
     0.0000000000000000    0.0000000000000000    5.2127372625346222
 Sc  W   N  
   4   4  12
Direct
  0.0000000000000000  0.8211731764496975  0.9845855707384032
  0.5000000000000000  0.4160707450492946  0.4845855707384032
  0.0000000000000000  0.3185846825542431  0.4633535095137802
  0.5000000000000000  0.9186592389447440 -0.0366464904862198
  0.7534357489490945  0.8649890473579970  0.4666152023922622
  0.7465642510509056  0.3722548741409949 -0.0333847976077379
  0.2534357489490944  0.3722548741409949 -0.0333847976077379
  0.2465642510509055  0.8649890473579970  0.4666152023922622
  0.0000000000000000  0.8977141427589553  0.5601455839924186
  0.5000000000000000  0.3395297787400368  1.0601455839924183
  0.0000000000000000  0.3972182820842041 -0.1055456655973144
  0.5000000000000000  0.8400256394147880  0.3944543344026855
  0.7052436365194621  0.6779021811429001  0.7906008907046810
  0.7947563634805379  0.5593417403560919  0.2906008907046810
  0.2052436365194621  0.5593417403560919  0.2906008907046810
  0.2947563634805380  0.6779021811429001  0.7906008907046810
  0.7923060229957672  1.0602704491622488  0.1632248303994431
  0.7076939770042328  0.1769734723367433  0.6632248303994431
  0.2923060229957672  0.1769734723367433  0.6632248303994431
  0.2076939770042328  1.0602704491622488  0.1632248303994431
