Sc  W  N 
 1.0000000000000000
     7.5634807225118070    0.0000000000000000    0.0000000000000000
     0.0000000000000000    5.5423189635722974    0.0000000000000000
     0.0000000000000000    0.0000000000000000    5.2127372625346222
 Sc  W   N  
   4   4  12
Direct
  0.0000000000000000  0.8211731764496975  0.9845855707384032
  0.5000000000000000  0.2737243921498994  0.4845855707384032
  0.0000000000000000  0.3224674233974246  0.4952016013507148
  0.5000000000000000  0.7724301452021746 -0.0047983986492852
  0.7534357489490945  0.7992652409955479  0.4935707549114739
  0.7465642510509056  0.2956323276040489 -0.0064292450885261
  0.2534357489490944  0.2956323276040489 -0.0064292450885261
  0.2465642510509056  0.7992652409955479  0.4935707549114739
  0.0000000000000000  0.7829026932950688  0.4468055641113961
  0.5000000000000000  0.3119948753045280  0.9468055641113960
  0.0000000000000000  0.2831506236324445  0.0296511889062618
  0.5000000000000000  0.8117469449671523  0.5296511889062617
  0.7705404263766908  0.6060324730885849  0.8021099559841928
  0.7294595736233093  0.4888650955110119  0.3021099559841929
  0.2705404263766908  0.4888650955110119  0.3021099559841929
  0.2294595736233092  0.6060324730885849  0.8021099559841928
  0.7270092331385386  0.9884007411079334  0.1747338956789548
  0.7729907668614614  0.1064968274916634  0.6747338956789549
  0.2270092331385385  0.1064968274916634  0.6747338956789549
  0.2729907668614615  0.9884007411079334  0.1747338956789548
