Sc  W  N 
 1.0000000000000000
     7.5634807225118070    0.0000000000000000    0.0000000000000000
     0.0000000000000000    5.5423189635722974    0.0000000000000000
     0.0000000000000000    0.0000000000000000    5.2127372625346222
 Sc  W   N  
   4   4  12
Direct
  0.0000000000000000  0.8211731764496975  0.9845855707384032
  0.5000000000000000  0.3686219607494962  0.4845855707384032
  0.0000000000000000  0.3198789295019703  0.4739695401260917
  0.5000000000000000  0.8699162076972208 -0.0260304598739083
  0.7534357489490945  0.8430811119038473  0.4756003865653327
  0.7465642510509056  0.3467140252953462 -0.0243996134346673
  0.2534357489490944  0.3467140252953462 -0.0243996134346673
  0.2465642510509055  0.8430811119038473  0.4756003865653327
  0.0000000000000000  0.8594436596043263  0.5223655773654111
  0.5000000000000000  0.3303514775948672  1.0223655773654110
  0.0000000000000000  0.3591957292669509 -0.0604800474294556
  0.5000000000000000  0.8305994079322426  0.4395199525705443
  0.7270092331385384  0.6539456117914617  0.7944372457978517
  0.7729907668614616  0.5358495254077319  0.2944372457978517
  0.2270092331385384  0.5358495254077319  0.2944372457978517
  0.2729907668614617  0.6539456117914617  0.7944372457978517
  0.7705404263766911  1.0363138798108105  0.1670611854926137
  0.7294595736233090  0.1534812573883833  0.6670611854926137
  0.2705404263766910  0.1534812573883833  0.6670611854926137
  0.2294595736233090  1.0363138798108105  0.1670611854926137
