Y1 N1                                   
   1.0000000000000000     
    -0.0000000000000000    2.4393511927808604    2.4393511927808604
     2.4393511927808604   -0.0000000000000000    2.4393511927808604
     2.4393511927808604    2.4393511927808604   -0.0000000000000000
   Y    N 
     1     1
Direct
  0.0000000000000000  0.0000000000000000  0.0000000000000000
  0.5000000000000000  0.5000000000000000  0.5000000000000000

  0.00000000E+00  0.00000000E+00  0.00000000E+00
  0.00000000E+00  0.00000000E+00  0.00000000E+00
