Zr12 N16                                
   1.0000000000000000     
     3.2719447220166593   -0.0000000000000000    0.0000000000000000
     0.0000000000000000    9.7401859961911725    0.0000000000000000
     0.0000000000000000    0.0000000000000000   10.7840897259181983
   Zr   N 
    12    16
Direct
  0.2500000000000000  0.7310682803713462  0.6475586873475976
  0.7500000000000000  0.2689317196286467  0.3524413126524024
  0.2500000000000000  0.2310682803713533  0.8524413126524024
  0.7500000000000000  0.7689317196286538  0.1475586873475976
  0.2500000000000000  0.6071481752210843  0.9067629841280151
  0.7500000000000000  0.3928518247789157  0.0932370158719849
  0.2500000000000000  0.1071481752210843  0.5932370158719849
  0.7500000000000000  0.8928518247789157  0.4067629841280151
  0.2500000000000000  0.5687541432641652  0.3753098418479652
  0.7500000000000000  0.4312458567358348  0.6246901581520348
  0.2500000000000000  0.0687541432641652  0.1246901581520348
  0.7500000000000000  0.9312458567358348  0.8753098418479652
  0.2500000000000000  0.3970839978338816  0.9721571133821172
  0.7500000000000000  0.6029160021661184  0.0278428866178828
  0.2500000000000000  0.8970839978338816  0.5278428866178828
  0.7500000000000000  0.1029160021661184  0.4721571133821172
  0.2500000000000000  0.0054572820166143  0.7745419257270925
  0.7500000000000000  0.9945427179833857  0.2254580742729075
  0.2500000000000000  0.5054572820166143  0.7254580742729075
  0.7500000000000000  0.4945427179833857  0.2745419257270925
  0.2500000000000000  0.8566502156553639  0.0184655466819166
  0.7500000000000000  0.1433497843446361  0.9815354533180809
  0.2500000000000000  0.3566502156553639  0.4815354533180809
  0.7500000000000000  0.6433497843446361  0.5184645466819191
  0.7500000000000000  0.7369500421363284  0.7852093104430438
  0.2500000000000000  0.2630499578636716  0.2147906895569562
  0.7500000000000000  0.2369500421363284  0.7147906895569562
  0.2500000000000000  0.7630499578636716  0.2852093104430438

  0.00000000E+00  0.00000000E+00  0.00000000E+00
  0.00000000E+00  0.00000000E+00  0.00000000E+00
  0.00000000E+00  0.00000000E+00  0.00000000E+00
  0.00000000E+00  0.00000000E+00  0.00000000E+00
  0.00000000E+00  0.00000000E+00  0.00000000E+00
  0.00000000E+00  0.00000000E+00  0.00000000E+00
  0.00000000E+00  0.00000000E+00  0.00000000E+00
  0.00000000E+00  0.00000000E+00  0.00000000E+00
  0.00000000E+00  0.00000000E+00  0.00000000E+00
  0.00000000E+00  0.00000000E+00  0.00000000E+00
  0.00000000E+00  0.00000000E+00  0.00000000E+00
  0.00000000E+00  0.00000000E+00  0.00000000E+00
  0.00000000E+00  0.00000000E+00  0.00000000E+00
  0.00000000E+00  0.00000000E+00  0.00000000E+00
  0.00000000E+00  0.00000000E+00  0.00000000E+00
  0.00000000E+00  0.00000000E+00  0.00000000E+00
  0.00000000E+00  0.00000000E+00  0.00000000E+00
  0.00000000E+00  0.00000000E+00  0.00000000E+00
  0.00000000E+00  0.00000000E+00  0.00000000E+00
  0.00000000E+00  0.00000000E+00  0.00000000E+00
  0.00000000E+00  0.00000000E+00  0.00000000E+00
  0.00000000E+00  0.00000000E+00  0.00000000E+00
  0.00000000E+00  0.00000000E+00  0.00000000E+00
  0.00000000E+00  0.00000000E+00  0.00000000E+00
  0.00000000E+00  0.00000000E+00  0.00000000E+00
  0.00000000E+00  0.00000000E+00  0.00000000E+00
  0.00000000E+00  0.00000000E+00  0.00000000E+00
  0.00000000E+00  0.00000000E+00  0.00000000E+00
