In2 N2                                  
   1.0000000000000000     
     1.7697264880454460   -3.0652575371545097    0.0000000000000000
     1.7697264880454460    3.0652575371545097   -0.0000000000000000
     0.0000000000000000   -0.0000000000000000    5.7073438427488661
   In   N 
     2     2
Direct
  0.6666669999999968  0.3333330000000032  0.5002585357514917
  0.3333330000000032  0.6666669999999968  0.0002585357514917
  0.6666669999999968  0.3333330000000032  0.8797414642485109
  0.3333330000000032  0.6666669999999968  0.3797414642485109

  0.00000000E+00  0.00000000E+00  0.00000000E+00
  0.00000000E+00  0.00000000E+00  0.00000000E+00
  0.00000000E+00  0.00000000E+00  0.00000000E+00
  0.00000000E+00  0.00000000E+00  0.00000000E+00
