Hf4 N2                                  
   1.0000000000000000     
     5.3008576101689009   -0.0000000000000000    0.0000000000000000
    -0.0000000000000000    5.3008576101689009    0.0000000000000000
     0.0000000000000000    0.0000000000000000    3.2340217752300866
   Hf   N 
     4     2
Direct
  0.2959780503450986  0.2959780503450986  0.0000000000000000
  0.7040219496549014  0.7040219496549014  0.0000000000000000
  0.2040219496549014  0.7959780503450986  0.5000000000000000
  0.7959780503450986  0.2040219496549014  0.5000000000000000
  0.0000000000000000  0.0000000000000000  0.0000000000000000
  0.5000000000000000  0.5000000000000000  0.5000000000000000

  0.00000000E+00  0.00000000E+00  0.00000000E+00
  0.00000000E+00  0.00000000E+00  0.00000000E+00
  0.00000000E+00  0.00000000E+00  0.00000000E+00
  0.00000000E+00  0.00000000E+00  0.00000000E+00
  0.00000000E+00  0.00000000E+00  0.00000000E+00
  0.00000000E+00  0.00000000E+00  0.00000000E+00
