La Mo  N 
 1.0000000000000000
     5.6353372251629805   -0.0000000000000000   -0.0000000000000000
    -2.8176686125814903    4.8803451958832467   -0.0000000000000000
    -0.0000000000000000   -0.0000000000000000   13.7667776639793757
 La  Mo  N  
   6   6  18
Direct
  0.3333333333333357  0.6666666666666643  0.4733967069559668
  0.3333333333333357  0.6666666666666643  0.9733967069559668
  0.0000000000000012 -0.0000000000000012  0.8067300402892966
  0.0000000000000012 -0.0000000000000012  0.3067300402892966
  0.6666666666666655  0.3333333333333345  0.1400633736226323
  0.6666666666666655  0.3333333333333345  0.6400633736226323
  0.3333333333333357  0.6666666666666643  0.2217356469959384
  0.3333333333333357  0.6666666666666643  0.7217356469959384
  0.0000000000000012 -0.0000000000000012  0.5550689803292682
  0.0000000000000012 -0.0000000000000012  0.0550689803292682
  0.6666666666666655  0.3333333333333345  0.8884023136626039
  0.6666666666666655  0.3333333333333345  0.3884023136626039
  0.0002640710175080  0.4644961243775552  0.3192435795687120
  0.5355038756224447  0.5357679466399502  0.3192435795687120
  0.4642320533600497  0.9997359289824922  0.3192435795687120
  0.2021705422891091  0.3330692623158278  0.1525769129020477
  0.6669307376841723  0.8691012799732790  0.1525769129020477
  0.1308987200267211  0.7978294577108910  0.1525769129020477
  0.6669307376841722  0.7978294577108910  0.6525769129020477
  0.2021705422891092  0.8691012799732790  0.6525769129020477
  0.1308987200267211  0.3330692623158278  0.6525769129020477
  0.8688372089557793  0.6664025956491624  0.4859102462353775
  0.3335974043508377  0.2024346133066146  0.4859102462353775
  0.7975653866933855  0.1311627910442207  0.4859102462353775
  0.3335974043508377  0.1311627910442207  0.9859102462353775
  0.8688372089557793  0.2024346133066146  0.9859102462353775
  0.7975653866933855  0.6664025956491624  0.9859102462353775
  0.5355038756224448  0.9997359289824922  0.8192435795687120
  0.0002640710175079  0.5357679466399502  0.8192435795687120
  0.4642320533600497  0.4644961243775552  0.8192435795687120
