La Mo  N                                
   1.0000000000000000     
     5.6353372251629805   -0.0000000000000000   -0.0000000000000000
    -2.8176686125814903    4.8803451958832467   -0.0000000000000000
    -0.0000000000000000   -0.0000000000000000   13.7667776639793757
   La   Mo   N 
     6     6    18
Direct
  0.3333333333333357  0.6666666666666643  0.4733967069559668
  0.3333333333333357  0.6666666666666643  0.9733967069559668
  0.0000000000000000  0.0000000000000000  0.8067300402892954
  0.0000000000000000  0.0000000000000000  0.3067300402892954
  0.6666666666666643  0.3333333333333357  0.1400633736226311
  0.6666666666666643  0.3333333333333357  0.6400633736226311
  0.3333333333333357  0.6666666666666643  0.2209051170159242
  0.3333333333333357  0.6666666666666643  0.7209051170159242
  0.0000000000000000  0.0000000000000000  0.5542384503492528
  0.0000000000000000  0.0000000000000000  0.0542384503492528
  0.6666666666666643  0.3333333333333357  0.8875717836825885
  0.6666666666666643  0.3333333333333357  0.3875717836825885
  0.0003961065262601  0.4467441865663346  0.3255003492084185
  0.5532558134336654  0.5536519199599255  0.3255003492084185
  0.4463480800400745  0.9996038934737399  0.3255003492084185
  0.2199224801003297  0.3329372268070756  0.1588336825417542
  0.6670627731929244  0.8869852532932541  0.1588336825417542
  0.1130147467067459  0.7800775198996703  0.1588336825417542
  0.6670627731929244  0.7800775198996703  0.6588336825417542
  0.2199224801003297  0.8869852532932541  0.6588336825417542
  0.1130147467067459  0.3329372268070756  0.6588336825417542
  0.8865891467670011  0.6662705601404113  0.4921670158750828
  0.3337294398595887  0.2203185866265898  0.4921670158750828
  0.7796814133734102  0.1134108532329989  0.4921670158750828
  0.3337294398595887  0.1134108532329989  0.9921670158750828
  0.8865891467670011  0.2203185866265898  0.9921670158750828
  0.7796814133734102  0.6662705601404113  0.9921670158750828
  0.5532558134336654  0.9996038934737399  0.8255003492084185
  0.0003961065262601  0.5536519199599255  0.8255003492084185
  0.4463480800400745  0.4467441865663346  0.8255003492084185

  0.00000000E+00  0.00000000E+00  0.00000000E+00
  0.00000000E+00  0.00000000E+00  0.00000000E+00
  0.00000000E+00  0.00000000E+00  0.00000000E+00
  0.00000000E+00  0.00000000E+00  0.00000000E+00
  0.00000000E+00  0.00000000E+00  0.00000000E+00
  0.00000000E+00  0.00000000E+00  0.00000000E+00
  0.00000000E+00  0.00000000E+00  0.00000000E+00
  0.00000000E+00  0.00000000E+00  0.00000000E+00
  0.00000000E+00  0.00000000E+00  0.00000000E+00
  0.00000000E+00  0.00000000E+00  0.00000000E+00
  0.00000000E+00  0.00000000E+00  0.00000000E+00
  0.00000000E+00  0.00000000E+00  0.00000000E+00
  0.00000000E+00  0.00000000E+00  0.00000000E+00
  0.00000000E+00  0.00000000E+00  0.00000000E+00
  0.00000000E+00  0.00000000E+00  0.00000000E+00
  0.00000000E+00  0.00000000E+00  0.00000000E+00
  0.00000000E+00  0.00000000E+00  0.00000000E+00
  0.00000000E+00  0.00000000E+00  0.00000000E+00
  0.00000000E+00  0.00000000E+00  0.00000000E+00
  0.00000000E+00  0.00000000E+00  0.00000000E+00
  0.00000000E+00  0.00000000E+00  0.00000000E+00
  0.00000000E+00  0.00000000E+00  0.00000000E+00
  0.00000000E+00  0.00000000E+00  0.00000000E+00
  0.00000000E+00  0.00000000E+00  0.00000000E+00
  0.00000000E+00  0.00000000E+00  0.00000000E+00
  0.00000000E+00  0.00000000E+00  0.00000000E+00
  0.00000000E+00  0.00000000E+00  0.00000000E+00
  0.00000000E+00  0.00000000E+00  0.00000000E+00
  0.00000000E+00  0.00000000E+00  0.00000000E+00
  0.00000000E+00  0.00000000E+00  0.00000000E+00
