La Mo  N 
 1.0000000000000000
     5.6353372251629805   -0.0000000000000000   -0.0000000000000000
    -2.8176686125814903    4.8803451958832467   -0.0000000000000000
    -0.0000000000000000   -0.0000000000000000   13.7667776639793757
 La  Mo  N  
   6   6  18
Direct
  0.3333333333333357  0.6666666666666643  0.4733967069559668
  0.3333333333333357  0.6666666666666643  0.9733967069559668
  0.0000000000000035 -0.0000000000000035  0.8067300402892991
  0.0000000000000035 -0.0000000000000035  0.3067300402892990
  0.6666666666666677  0.3333333333333321  0.1400633736226347
  0.6666666666666677  0.3333333333333321  0.6400633736226348
  0.3333333333333357  0.6666666666666643  0.2233967069559668
  0.3333333333333357  0.6666666666666643  0.7233967069559668
  0.0000000000000035 -0.0000000000000035  0.5567300402892990
  0.0000000000000035 -0.0000000000000035  0.0567300402892990
  0.6666666666666677  0.3333333333333321  0.8900633736226348
  0.6666666666666677  0.3333333333333321  0.3900633736226347
  0.0000000000000036  0.4999999999999964  0.3067300402892990
  0.5000000000000034  0.4999999999999999  0.3067300402892990
  0.5000000000000000  0.9999999999999966  0.3067300402892990
  0.1666666666666678  0.3333333333333321  0.1400633736226347
  0.6666666666666679  0.8333333333333287  0.1400633736226347
  0.1666666666666714  0.8333333333333321  0.1400633736226347
  0.6666666666666679  0.8333333333333321  0.6400633736226347
  0.1666666666666679  0.8333333333333287  0.6400633736226347
  0.1666666666666714  0.3333333333333321  0.6400633736226347
  0.8333333333333356  0.6666666666666643  0.4733967069559669
  0.3333333333333357  0.1666666666666643  0.4733967069559669
  0.8333333333333356  0.1666666666666643  0.4733967069559669
  0.3333333333333356  0.1666666666666643  0.9733967069559668
  0.8333333333333356  0.1666666666666643  0.9733967069559668
  0.8333333333333356  0.6666666666666643  0.9733967069559668
  0.5000000000000037  0.9999999999999966  0.8067300402892991
  0.0000000000000035  0.4999999999999999  0.8067300402892991
  0.5000000000000000  0.4999999999999964  0.8067300402892991
