La Mo  N 
 1.0000000000000000
     5.6353372251629805   -0.0000000000000000   -0.0000000000000000
    -2.8176686125814903    4.8803451958832467   -0.0000000000000000
    -0.0000000000000000   -0.0000000000000000   13.7667776639793757
 La  Mo  N  
   6   6  18
Direct
  0.3333333333333357  0.6666666666666643  0.4733967069559668
  0.3333333333333357  0.6666666666666643  0.9733967069559668
  0.0000000000000047 -0.0000000000000047  0.8067300402893002
  0.0000000000000047 -0.0000000000000047  0.3067300402893001
  0.6666666666666690  0.3333333333333310  0.1400633736226359
  0.6666666666666690  0.3333333333333310  0.6400633736226359
  0.3333333333333357  0.6666666666666643  0.2242272369359810
  0.3333333333333357  0.6666666666666643  0.7242272369359811
  0.0000000000000047 -0.0000000000000047  0.5575605702693143
  0.0000000000000047 -0.0000000000000047  0.0575605702693144
  0.6666666666666690  0.3333333333333310  0.8908939036026501
  0.6666666666666690  0.3333333333333310  0.3908939036026500
 -0.0001320355087486  0.5177519378112172  0.3004732706495925
  0.4822480621887826  0.4821160266800246  0.3004732706495925
  0.5178839733199753  1.0001320355087486  0.3004732706495925
  0.1489147288554471  0.3334653688420843  0.1338066039829281
  0.6665346311579158  0.8154493600133534  0.1338066039829281
  0.1845506399866467  0.8510852711445529  0.1338066039829281
  0.6665346311579157  0.8510852711445529  0.6338066039829281
  0.1489147288554472  0.8154493600133534  0.6338066039829281
  0.1845506399866467  0.3334653688420843  0.6338066039829281
  0.8155813955221137  0.6667987021754153  0.4671399373162615
  0.3332012978245847  0.1487826933466889  0.4671399373162615
  0.8512173066533110  0.1844186044778862  0.4671399373162615
  0.3332012978245846  0.1844186044778862  0.9671399373162615
  0.8155813955221137  0.1487826933466889  0.9671399373162615
  0.8512173066533109  0.6667987021754153  0.9671399373162615
  0.4822480621887829  1.0001320355087486  0.8004732706495924
 -0.0001320355087488  0.4821160266800246  0.8004732706495924
  0.5178839733199754  0.5177519378112172  0.8004732706495924
