La Mo  N 
 1.0000000000000000
     5.6353372251629805   -0.0000000000000000   -0.0000000000000000
    -2.8176686125814903    4.8803451958832467   -0.0000000000000000
    -0.0000000000000000   -0.0000000000000000   13.7667776639793757
 La  Mo  N  
   6   6  18
Direct
  0.3333333333333357  0.6666666666666643  0.4733967069559668
  0.3333333333333357  0.6666666666666643  0.9733967069559668
  0.0000000000000071 -0.0000000000000071  0.8067300402893025
  0.0000000000000071 -0.0000000000000071  0.3067300402893025
  0.6666666666666712  0.3333333333333286  0.1400633736226382
  0.6666666666666712  0.3333333333333286  0.6400633736226382
  0.3333333333333357  0.6666666666666643  0.2258882968960094
  0.3333333333333357  0.6666666666666643  0.7258882968960094
  0.0000000000000071 -0.0000000000000071  0.5592216302293450
  0.0000000000000071 -0.0000000000000071  0.0592216302293451
  0.6666666666666712  0.3333333333333286  0.8925549635626808
  0.6666666666666712  0.3333333333333286  0.3925549635626807
 -0.0003961065262530  0.5532558134336583  0.2879597313701794
  0.4467441865663415  0.4463480800400744  0.2879597313701794
  0.5536519199599255  1.0003961065262530  0.2879597313701794
  0.1134108532330060  0.3337294398595886  0.1212930647035151
  0.6662705601404113  0.7796814133734032  0.1212930647035151
  0.2203185866265969  0.8865891467669940  0.1212930647035151
  0.6662705601404113  0.8865891467669940  0.6212930647035151
  0.1134108532330061  0.7796814133734032  0.6212930647035151
  0.2203185866265969  0.3337294398595886  0.6212930647035151
  0.7800775198996702  0.6670627731929172  0.4546263980368509
  0.3329372268070827  0.1130147467067387  0.4546263980368509
  0.8869852532932609  0.2199224801003297  0.4546263980368509
  0.3329372268070827  0.2199224801003297  0.9546263980368508
  0.7800775198996702  0.1130147467067387  0.9546263980368508
  0.8869852532932612  0.6670627731929172  0.9546263980368508
  0.4467441865663417  1.0003961065262530  0.7879597313701794
 -0.0003961065262532  0.4463480800400744  0.7879597313701794
  0.5536519199599255  0.5532558134336583  0.7879597313701794
