La Mo  N 
 1.0000000000000000
     5.6353372251629805   -0.0000000000000000   -0.0000000000000000
    -2.8176686125814903    4.8803451958832467   -0.0000000000000000
    -0.0000000000000000   -0.0000000000000000   13.7667776639793757
 La  Mo  N  
   6   6  18
Direct
  0.3333333333333357  0.6666666666666643  0.4733967069559668
  0.3333333333333357  0.6666666666666643  0.9733967069559668
  0.0000000000000059 -0.0000000000000059  0.8067300402893014
  0.0000000000000059 -0.0000000000000059  0.3067300402893013
  0.6666666666666701  0.3333333333333298  0.1400633736226370
  0.6666666666666701  0.3333333333333298  0.6400633736226371
  0.3333333333333357  0.6666666666666643  0.2250577669159952
  0.3333333333333357  0.6666666666666643  0.7250577669159952
  0.0000000000000059 -0.0000000000000059  0.5583911002493297
  0.0000000000000059 -0.0000000000000059  0.0583911002493298
  0.6666666666666701  0.3333333333333298  0.8917244335826655
  0.6666666666666701  0.3333333333333298  0.3917244335826653
 -0.0002640710175008  0.5355038756224378  0.2942165010098859
  0.4644961243775619  0.4642320533600494  0.2942165010098859
  0.5357679466399504  1.0002640710175008  0.2942165010098859
  0.1311627910442264  0.3335974043508364  0.1275498343432215
  0.6664025956491636  0.7975653866933783  0.1275498343432215
  0.2024346133066220  0.8688372089557735  0.1275498343432215
  0.6664025956491636  0.8688372089557735  0.6275498343432215
  0.1311627910442265  0.7975653866933783  0.6275498343432215
  0.2024346133066219  0.3335974043508364  0.6275498343432215
  0.7978294577108919  0.6669307376841662  0.4608831676765561
  0.3330692623158337  0.1308987200267137  0.4608831676765561
  0.8691012799732860  0.2021705422891081  0.4608831676765561
  0.3330692623158337  0.2021705422891081  0.9608831676765561
  0.7978294577108919  0.1308987200267137  0.9608831676765561
  0.8691012799732860  0.6669307376841662  0.9608831676765561
  0.4644961243775621  1.0002640710175008  0.7942165010098858
 -0.0002640710175009  0.4642320533600494  0.7942165010098858
  0.5357679466399504  0.5355038756224378  0.7942165010098858
