La Mo  N 
 1.0000000000000000
     5.6353372251629805   -0.0000000000000000   -0.0000000000000000
    -2.8176686125814903    4.8803451958832467   -0.0000000000000000
    -0.0000000000000000   -0.0000000000000000   13.7667776639793757
 La  Mo  N  
   6   6  18
Direct
  0.3333333333333357  0.6666666666666643  0.4733967069559668
  0.3333333333333357  0.6666666666666643  0.9733967069559668
  0.0000000000000024 -0.0000000000000024  0.8067300402892977
  0.0000000000000024 -0.0000000000000024  0.3067300402892978
  0.6666666666666666  0.3333333333333334  0.1400633736226335
  0.6666666666666666  0.3333333333333334  0.6400633736226334
  0.3333333333333357  0.6666666666666643  0.2225661769759526
  0.3333333333333357  0.6666666666666643  0.7225661769759526
  0.0000000000000024 -0.0000000000000024  0.5558995103092836
  0.0000000000000024 -0.0000000000000024  0.0558995103092836
  0.6666666666666666  0.3333333333333334  0.8892328436426193
  0.6666666666666666  0.3333333333333334  0.3892328436426192
  0.0001320355087558  0.4822480621887759  0.3129868099290055
  0.5177519378112240  0.5178839733199750  0.3129868099290055
  0.4821160266800250  0.9998679644912444  0.3129868099290055
  0.1844186044778884  0.3332012978245799  0.1463201432623412
  0.6667987021754201  0.8512173066533039  0.1463201432623412
  0.1487826933466963  0.8155813955221116  0.1463201432623412
  0.6667987021754201  0.8155813955221116  0.6463201432623411
  0.1844186044778885  0.8512173066533039  0.6463201432623411
  0.1487826933466963  0.3332012978245799  0.6463201432623411
  0.8510852711445575  0.6665346311579134  0.4796534765956722
  0.3334653688420867  0.1845506399866394  0.4796534765956722
  0.8154493600133605  0.1489147288554426  0.4796534765956722
  0.3334653688420867  0.1489147288554426  0.9796534765956720
  0.8510852711445575  0.1845506399866394  0.9796534765956720
  0.8154493600133605  0.6665346311579134  0.9796534765956720
  0.5177519378112242  0.9998679644912444  0.8129868099290054
  0.0001320355087557  0.5178839733199750  0.8129868099290054
  0.4821160266800248  0.4822480621887759  0.8129868099290054
