Zr4 Sb2                                 
   1.0000000000000000     
    -2.0509892701652115    2.0509892701652150    7.9477794246800944
     2.0509892701652168   -2.0509892701652110    7.9477794246800935
     2.0509892701652110    2.0509892701652110   -7.9477794246801015
   Zr   Sb
     4     2
Direct
  0.0000000000000000  0.5000000000000000  0.5000000000000000
  0.5000000000000000  0.0000000000000000  0.5000000000000000
  0.6783796576492733  0.6783796576492733  0.0000000000000000
  0.3216203423507267  0.3216203423507267  0.0000000000000000
  0.8624299201686796  0.8624299201686796  0.0000000000000000
  0.1375700798313133  0.1375700798313133  0.0000000000000000

  0.00000000E+00  0.00000000E+00  0.00000000E+00
  0.00000000E+00  0.00000000E+00  0.00000000E+00
  0.00000000E+00  0.00000000E+00  0.00000000E+00
  0.00000000E+00  0.00000000E+00  0.00000000E+00
  0.00000000E+00  0.00000000E+00  0.00000000E+00
  0.00000000E+00  0.00000000E+00  0.00000000E+00
