Y3                                      
   1.0000000000000000     
     8.9294769808870704   -1.8217583622675240    0.0117984480258806
     8.9294769808870651    1.8217583622675242    0.0117984480258808
     8.5536683021070630    0.0000000000000001    3.1447172055193708
   Y 
     3
Direct
  0.0000000000000000  0.0000000000000000  0.0000000000000000
  0.2218588140612425  0.2218588140612425  0.2218588140612425
  0.7781411859387575  0.7781411859387575  0.7781411859387575

  0.00000000E+00  0.00000000E+00  0.00000000E+00
  0.00000000E+00  0.00000000E+00  0.00000000E+00
  0.00000000E+00  0.00000000E+00  0.00000000E+00
