Ta30                                    
   1.0000000000000000     
    10.2170690184326318    0.0000000000000000    0.0000000000000000
    -0.0000000000000000   10.2170690184326318    0.0000000000000000
     0.0000000000000000    0.0000000000000000    5.2826058232903064
   Ta
    30
Direct
  0.9656009582355765  0.3720107585533370  0.0000000000000000
  0.2607348405552088  0.9323425127112515  0.5000000000000000
  0.3189125541024751  0.6810874458975249  0.7496591104194721
  0.1279892414466630  0.4656009582355836  0.5000000000000000
  0.8720107585533370  0.5343990417644235  0.5000000000000000
  0.8948628058177945  0.1051371941822055  0.0000000000000000
  0.8189125541024751  0.8189125541024751  0.7503408895805279
  0.1810874458975249  0.1810874458975249  0.2496591104194721
  0.7392651594447912  0.0676574872887485  0.5000000000000000
  0.9323425127112515  0.2607338405552042  0.5000000000000000
  0.3948638058177920  0.3948628058177945  0.5000000000000000
  0.5000000000000000  0.5000000000000000  0.0000000000000000
  0.5343990417644235  0.8720107585533370  0.5000000000000000
  0.5676574872887485  0.7607348405552088  0.0000000000000000
  0.0343990417644164  0.6279892414466630  0.0000000000000000
  0.6051371941822055  0.6051371941822055  0.5000000000000000
  0.3189125541024751  0.6810874458975249  0.2503408895805279
  0.6810874458975249  0.3189125541024751  0.2503398895805304
  0.0000000000000000  0.0000000000000000  0.5000000000000000
  0.8189125541024751  0.8189125541024751  0.2496591104194721
  0.6810874458975249  0.3189125541024751  0.7496601104194696
  0.4323425127112444  0.2392651594447912  0.0000000000000000
  0.1810874458975249  0.1810874458975249  0.7503408895805279
  0.7607338405552042  0.5676574872887485  0.0000000000000000
  0.3720107585533370  0.9656009582355765  0.0000000000000000
  0.0676574872887485  0.7392661594447958  0.5000000000000000
  0.6279892414466630  0.0343990417644164  0.0000000000000000
  0.4656009582355836  0.1279892414466630  0.5000000000000000
  0.2392661594447958  0.4323425127112444  0.0000000000000000
  0.1051371941822055  0.8948628058177945  0.0000000000000000

  0.00000000E+00  0.00000000E+00  0.00000000E+00
  0.00000000E+00  0.00000000E+00  0.00000000E+00
  0.00000000E+00  0.00000000E+00  0.00000000E+00
  0.00000000E+00  0.00000000E+00  0.00000000E+00
  0.00000000E+00  0.00000000E+00  0.00000000E+00
  0.00000000E+00  0.00000000E+00  0.00000000E+00
  0.00000000E+00  0.00000000E+00  0.00000000E+00
  0.00000000E+00  0.00000000E+00  0.00000000E+00
  0.00000000E+00  0.00000000E+00  0.00000000E+00
  0.00000000E+00  0.00000000E+00  0.00000000E+00
  0.00000000E+00  0.00000000E+00  0.00000000E+00
  0.00000000E+00  0.00000000E+00  0.00000000E+00
  0.00000000E+00  0.00000000E+00  0.00000000E+00
  0.00000000E+00  0.00000000E+00  0.00000000E+00
  0.00000000E+00  0.00000000E+00  0.00000000E+00
  0.00000000E+00  0.00000000E+00  0.00000000E+00
  0.00000000E+00  0.00000000E+00  0.00000000E+00
  0.00000000E+00  0.00000000E+00  0.00000000E+00
  0.00000000E+00  0.00000000E+00  0.00000000E+00
  0.00000000E+00  0.00000000E+00  0.00000000E+00
  0.00000000E+00  0.00000000E+00  0.00000000E+00
  0.00000000E+00  0.00000000E+00  0.00000000E+00
  0.00000000E+00  0.00000000E+00  0.00000000E+00
  0.00000000E+00  0.00000000E+00  0.00000000E+00
  0.00000000E+00  0.00000000E+00  0.00000000E+00
  0.00000000E+00  0.00000000E+00  0.00000000E+00
  0.00000000E+00  0.00000000E+00  0.00000000E+00
  0.00000000E+00  0.00000000E+00  0.00000000E+00
  0.00000000E+00  0.00000000E+00  0.00000000E+00
  0.00000000E+00  0.00000000E+00  0.00000000E+00
