Zr4 Sb4                                 
   1.0000000000000000     
     5.6292079328503899    0.0000000000000000   -0.0000000000000000
    -0.0000000000000000    5.6292079328503899   -0.0000000000000000
    -0.0000000000000000    0.0000000000000000    5.6292079328503899
   Zr   Sb
     4     4
Direct
  0.3562383392393826  0.8562383392393826  0.6437616607606174
  0.6437616607606174  0.3562383392393826  0.8562383392393826
  0.8562383392393826  0.6437616607606174  0.3562383392393826
  0.1437616607606174  0.1437616607606174  0.1437616607606174
  0.3430320763937544  0.6569679236062456  0.1569679236062456
  0.8430320763937544  0.8430320763937544  0.8430320763937544
  0.6569679236062456  0.1569679236062456  0.3430320763937544
  0.1569679236062456  0.3430320763937544  0.6569679236062456

  0.00000000E+00  0.00000000E+00  0.00000000E+00
  0.00000000E+00  0.00000000E+00  0.00000000E+00
  0.00000000E+00  0.00000000E+00  0.00000000E+00
  0.00000000E+00  0.00000000E+00  0.00000000E+00
  0.00000000E+00  0.00000000E+00  0.00000000E+00
  0.00000000E+00  0.00000000E+00  0.00000000E+00
  0.00000000E+00  0.00000000E+00  0.00000000E+00
  0.00000000E+00  0.00000000E+00  0.00000000E+00
