Zr20 Sb12                               
   1.0000000000000000     
     7.5482787510935552    0.0000000000000000    0.0000000000000000
     0.0000000000000000    8.7770052754222103    0.0000000000000000
     0.0000000000000000    0.0000000000000000   10.7857315729279897
   Zr   Sb
    20    12
Direct
  0.4718131978866822  0.7500000000000000  0.5031040463817646
  0.9718131978866822  0.2500000000000000  0.9968959536182354
  0.5281868021133178  0.2500000000000000  0.4968959536182354
  0.0281868021133178  0.7500000000000000  0.0031040463817646
  0.3197365281464428  0.7500000000000000  0.2330466395167718
  0.8197365281464428  0.2500000000000000  0.2669533604832353
  0.6802634718535572  0.2500000000000000  0.7669533604832282
  0.1802634718535572  0.7500000000000000  0.7330466395167718
  0.1713149910504086  0.2500000000000000  0.7108054134901494
  0.6713149910504086  0.7500000000000000  0.7891945865098506
  0.8286850089495914  0.7500000000000000  0.2891945865098506
  0.3286850089495914  0.2500000000000000  0.2108054134901494
  0.1987123247406402  0.4447981937232228  0.4460291437868733
  0.6987123247406402  0.5552018062767772  0.0539708562131267
  0.8012876752593598  0.9447981937232228  0.5539708562131267
  0.3012876752593598  0.0552018062767772  0.9460291437868733
  0.8012876752593598  0.5552018062767772  0.5539708562131267
  0.3012876752593598  0.4447981937232228  0.9460291437868733
  0.1987123247406402  0.0552018062767772  0.4460291437868733
  0.6987123247406402  0.9447981937232228  0.0539708562131267
  0.0889672945340720  0.7500000000000000  0.4750680772528995
  0.5889672945340720  0.2500000000000000  0.0249319227471076
  0.9110327054659280  0.2500000000000000  0.5249319227471005
  0.4110327054659280  0.7500000000000000  0.9750680772528995
  0.0664753840341277  0.0077814346135199  0.1773463699125983
  0.5664753840341277  0.9922185653864801  0.3226536300874017
  0.9335246159658723  0.5077814346135199  0.8226536300874017
  0.4335246159658723  0.4922185653864801  0.6773463699125983
  0.9335246159658723  0.9922185653864801  0.8226536300874017
  0.4335246159658723  0.0077814346135199  0.6773463699125983
  0.0664753840341277  0.4922185653864801  0.1773463699125983
  0.5664753840341277  0.5077814346135199  0.3226536300874017

  0.00000000E+00  0.00000000E+00  0.00000000E+00
  0.00000000E+00  0.00000000E+00  0.00000000E+00
  0.00000000E+00  0.00000000E+00  0.00000000E+00
  0.00000000E+00  0.00000000E+00  0.00000000E+00
  0.00000000E+00  0.00000000E+00  0.00000000E+00
  0.00000000E+00  0.00000000E+00  0.00000000E+00
  0.00000000E+00  0.00000000E+00  0.00000000E+00
  0.00000000E+00  0.00000000E+00  0.00000000E+00
  0.00000000E+00  0.00000000E+00  0.00000000E+00
  0.00000000E+00  0.00000000E+00  0.00000000E+00
  0.00000000E+00  0.00000000E+00  0.00000000E+00
  0.00000000E+00  0.00000000E+00  0.00000000E+00
  0.00000000E+00  0.00000000E+00  0.00000000E+00
  0.00000000E+00  0.00000000E+00  0.00000000E+00
  0.00000000E+00  0.00000000E+00  0.00000000E+00
  0.00000000E+00  0.00000000E+00  0.00000000E+00
  0.00000000E+00  0.00000000E+00  0.00000000E+00
  0.00000000E+00  0.00000000E+00  0.00000000E+00
  0.00000000E+00  0.00000000E+00  0.00000000E+00
  0.00000000E+00  0.00000000E+00  0.00000000E+00
  0.00000000E+00  0.00000000E+00  0.00000000E+00
  0.00000000E+00  0.00000000E+00  0.00000000E+00
  0.00000000E+00  0.00000000E+00  0.00000000E+00
  0.00000000E+00  0.00000000E+00  0.00000000E+00
  0.00000000E+00  0.00000000E+00  0.00000000E+00
  0.00000000E+00  0.00000000E+00  0.00000000E+00
  0.00000000E+00  0.00000000E+00  0.00000000E+00
  0.00000000E+00  0.00000000E+00  0.00000000E+00
  0.00000000E+00  0.00000000E+00  0.00000000E+00
  0.00000000E+00  0.00000000E+00  0.00000000E+00
  0.00000000E+00  0.00000000E+00  0.00000000E+00
  0.00000000E+00  0.00000000E+00  0.00000000E+00
