Zr  V  N 
 1.0000000000000000
    14.5521718200011438    0.0000000000000000    0.0000000000000000
     0.0000000000000000    5.0939286569011317    0.0000000000000000
     0.0000000000000000    0.0000000000000000    5.5450012626039218
 Zr  V   N  
   8   8  24
Direct
  0.0000000000000000  0.7265978213068962  0.5898469357788514
  0.5000000000000000  0.1797934639206887  0.0898469357788514
  0.0000000000000000  0.1991799145357333  0.0946721789219325
  0.5000000000000000  0.7072113706918515  0.5946721789219325
  0.2531118153924014  0.6936335364423200  0.7678229890229957
  0.2468881846075988  0.2127577487852648  1.2678229890229957
  0.7531118153924012  0.2127577487852648  1.2678229890229957
  0.7468881846075986  0.6936335364423200  0.7678229890229957
  0.8780547714619615  0.7365230322643869  0.1640514429854603
  0.6219452285380385  0.1698682529631980  0.6640514429854605
  0.3780547714619615  0.1698682529631980  0.6640514429854605
  0.1219452285380385  0.7365230322643869  0.1640514429854603
  0.8718604734846949  0.2413835807045146  0.6922814255932080
  0.6281395265153051  0.6650077045230700  1.1922814255932084
  0.3718604734846948  0.6650077045230700  1.1922814255932084
  0.1281395265153051  0.2413835807045146  0.6922814255932080
  0.0000000000000000  0.5795469376067643  1.2255269901379509
  0.5000000000000000  0.3268443476208205  0.7255269901379505
  0.0000000000000000  0.3209666412478001  0.7173380641555624
  0.5000000000000000  0.5854246439797848  1.2173380641555622
  0.2511269495314465  0.8264640825505936  0.1372684627013569
  0.2488730504685535  0.0799272026769912  0.6372684627013568
  0.7511269495314465  0.0799272026769912  0.6372684627013568
  0.7488730504685535  0.8264640825505936  0.1372684627013569
  0.8459098782241199  0.5203767057225192  0.4995969444481218
  0.6540901217758801  0.3860145795050655  0.9995969444481217
  0.3459098782241199  0.3860145795050655  0.9995969444481217
  0.1540901217758801  0.5203767057225192  0.4995969444481218
  0.9069035539095296  0.8826852508239185  0.8730647679658218
  0.5930964460904704  0.0237060344036663  0.3730647679658220
  0.4069035539095296  0.0237060344036663  0.3730647679658220
  0.0930964460904704  0.8826852508239185  0.8730647679658218
  0.3434907140161840  0.5207524900482666  0.4879100737808315
  0.1565092859838160  0.3856387951793179  0.9879100737808315
  0.8434907140161840  0.3856387951793179  0.9879100737808315
  0.6565092859838160  0.5207524900482666  0.4879100737808315
  0.4038273492202791  0.8873881738262597  0.8612490245820864
  0.0961726507797210  0.0190031114013251  0.3612490245820866
  0.9038273492202790  0.0190031114013251  0.3612490245820866
  0.5961726507797209  0.8873881738262597  0.8612490245820864
