Zr  V  N 
 1.0000000000000000
    14.5521718200011438    0.0000000000000000    0.0000000000000000
     0.0000000000000000    5.0939286569011317    0.0000000000000000
     0.0000000000000000    0.0000000000000000    5.5450012626039218
 Zr  V   N  
   8   8  24
Direct
  0.0000000000000000  0.7265978213068962  0.5898469357788514
  0.5000000000000000  0.2578007262310346  0.0898469357788514
  0.0000000000000000  0.2448764258210048  0.0866301070167973
  0.5000000000000000  0.7395221217169261  0.5866301070167973
  0.2531118153924012  0.7485740112166136  0.4711962336160886
  0.2468881846075988  0.2358245363213171  0.9711962336160886
  0.7531118153924012  0.2358245363213171  0.9711962336160886
  0.7468881846075986  0.7485740112166136  0.4711962336160886
  0.8780547714619615  0.7199810140019025  0.0403772643077787
  0.6219452285380385  0.2644175335360281  0.5403772643077787
  0.3780547714619615  0.2644175335360281  0.5403772643077787
  0.1219452285380385  0.7199810140019025  0.0403772643077787
  0.8718604734846949  0.2167406483751506  0.5215572759026136
  0.6281395265153051  0.7676578991627802  1.0215572759026137
  0.3718604734846949  0.7676578991627802  1.0215572759026137
  0.1281395265153051  0.2167406483751506  0.5215572759026136
  0.0000000000000000  0.8246317437736507  0.9993935662061186
  0.5000000000000000  0.1597668037642801  0.4993935662061186
  0.0000000000000000  0.1636852746796271  0.5048528501943773
  0.5000000000000000  0.8207132728583038  1.0048528501943774
  0.2511269495314465  0.6600203138110980  0.0582325844971810
  0.2488730504685535  0.3243782337268327  0.5582325844971811
  0.7511269495314465  0.3243782337268327  0.5582325844971811
  0.7488730504685535  0.6600203138110980  0.0582325844971810
  0.8967379412952945  0.5621547774453147  0.3387904104012544
  0.6032620587047054  0.4222437700926159  0.8387904104012543
  0.3967379412952947  0.4222437700926159  0.8387904104012543
  0.1032620587047054  0.5621547774453147  0.3387904104012544
  0.8560754908383549  0.9244633225467142  0.7122582339189544
  0.6439245091616450  0.0599352249912167  0.2122582339189544
  0.3560754908383548  0.0599352249912167  0.2122582339189544
  0.1439245091616451  0.9244633225467142  0.7122582339189544
  0.3937712433529299  0.5582983056643217  0.3466890514431522
  0.1062287566470701  0.4261002418736091  0.8466890514431522
  0.8937712433529298  0.4261002418736091  0.8466890514431522
  0.6062287566470701  0.5582983056643217  0.3466890514431522
  0.3535468198835331  0.9249339894423148  0.7200280022444072
  0.1464531801164668  0.0594645580956161  0.2200280022444072
  0.8535468198835333  0.0594645580956161  0.2200280022444072
  0.6464531801164668  0.9249339894423148  0.7200280022444072
