Zr  V  N 
 1.0000000000000000
    14.5521718200011438    0.0000000000000000    0.0000000000000000
     0.0000000000000000    5.0939286569011317    0.0000000000000000
     0.0000000000000000    0.0000000000000000    5.5450012626039218
 Zr  V   N  
   8   8  24
Direct
  0.0000000000000000  0.7265978213068962  0.5898469357788514
  0.5000000000000000  0.2109963688448269  0.0898469357788514
  0.0000000000000000  0.2174585190498419  0.0914553501598784
  0.5000000000000000  0.7201356711018813  0.5914553501598784
  0.2531118153924013  0.7156097263520373  0.6491722868602332
  0.2468881846075988  0.2219844637996857  1.1491722868602332
  0.7531118153924012  0.2219844637996857  1.1491722868602332
  0.7468881846075986  0.7156097263520373  0.6491722868602332
  0.8780547714619615  0.7299062249593931  0.1145817715143878
  0.6219452285380385  0.2076879651923300  0.6145817715143879
  0.3780547714619615  0.2076879651923300  0.6145817715143879
  0.1219452285380385  0.7299062249593931  0.1145817715143878
  0.8718604734846949  0.2315264077727690  0.6239917657169706
  0.6281395265153051  0.7060677823789540  1.1239917657169707
  0.3718604734846948  0.7060677823789540  1.1239917657169707
  0.1281395265153051  0.2315264077727690  0.6239917657169706
  0.0000000000000000  0.6775808600735186  1.1350736205652181
  0.5000000000000000  0.2600133300782045  0.6350736205652180
  0.0000000000000000  0.2580540946205311  0.6323439785710887
  0.5000000000000000  0.6795400955311920  1.1323439785710887
  0.2511269495314465  0.7598865750547956  0.1056541114196867
  0.2488730504685535  0.1777076150969275  0.6056541114196867
  0.7511269495314465  0.1777076150969275  0.6056541114196867
  0.7488730504685535  0.7598865750547956  0.1056541114196867
  0.8662411034525896  0.5370879344116374  0.4352743308293751
  0.6337588965474102  0.4005062557400856  0.9352743308293751
  0.3662411034525898  0.4005062557400856  0.9352743308293751
  0.1337588965474103  0.5370879344116374  0.4352743308293751
  0.8865723286810597  0.8993964795130367  0.8087421543470751
  0.6134276713189402  0.0381977106386864  0.3087421543470752
  0.3865723286810598  0.0381977106386864  0.3087421543470752
  0.1134276713189402  0.8993964795130367  0.8087421543470751
  0.3636029257508823  0.5357708162946886  0.4314216648457599
  0.1363970742491177  0.4018233738570343  0.9314216648457599
  0.8636029257508823  0.4018233738570343  0.9314216648457599
  0.6363970742491177  0.5357708162946886  0.4314216648457599
  0.3837151374855808  0.9024065000726817  0.8047606156470148
  0.1162848625144193  0.0351876900790414  0.3047606156470151
  0.8837151374855807  0.0351876900790414  0.3047606156470151
  0.6162848625144192  0.9024065000726817  0.8047606156470148
