Zr  V  N 
 1.0000000000000000
    14.5521718200011438    0.0000000000000000    0.0000000000000000
     0.0000000000000000    5.0939286569011317    0.0000000000000000
     0.0000000000000000    0.0000000000000000    5.5450012626039218
 Zr  V   N  
   8   8  24
Direct
  0.0000000000000000  0.7265978213068962  0.5898469357788514
  0.5000000000000000  0.2265978213068962  0.0898469357788514
  0.0000000000000000  0.2265978213068962  0.0898469357788514
  0.5000000000000000  0.7265978213068962  0.5898469357788513
  0.2531118153924012  0.7265978213068962  0.5898469357788514
  0.2468881846075988  0.2265978213068962  1.0898469357788514
  0.7531118153924012  0.2265978213068962  1.0898469357788514
  0.7468881846075986  0.7265978213068962  0.5898469357788514
  0.8780547714619615  0.7265978213068962  0.0898469357788513
  0.6219452285380385  0.2265978213068962  0.5898469357788513
  0.3780547714619615  0.2265978213068962  0.5898469357788513
  0.1219452285380385  0.7265978213068962  0.0898469357788513
  0.8718604734846949  0.2265978213068962  0.5898469357788513
  0.6281395265153051  0.7265978213068962  1.0898469357788514
  0.3718604734846948  0.7265978213068962  1.0898469357788514
  0.1281395265153051  0.2265978213068962  0.5898469357788513
  0.0000000000000000  0.7265978213068962  1.0898469357788514
  0.5000000000000000  0.2265978213068962  0.5898469357788513
  0.0000000000000000  0.2265978213068962  0.5898469357788513
  0.5000000000000000  0.7265978213068962  1.0898469357788514
  0.2511269495314465  0.7265978213068962  0.0898469357788513
  0.2488730504685535  0.2265978213068962  0.5898469357788513
  0.7511269495314465  0.2265978213068962  0.5898469357788513
  0.7488730504685535  0.7265978213068962  0.0898469357788513
  0.8764067160668247  0.5454435487561966  0.4031130240200013
  0.6235932839331753  0.4077520938575958  0.9031130240200014
  0.3764067160668247  0.4077520938575958  0.9031130240200014
  0.1235932839331752  0.5454435487561966  0.4031130240200013
  0.8764067160668247  0.9077520938575959  0.7765808475377014
  0.6235932839331753  0.0454435487561965  0.2765808475377014
  0.3764067160668247  0.0454435487561965  0.2765808475377014
  0.1235932839331753  0.9077520938575959  0.7765808475377014
  0.3736590316182316  0.5432799794178996  0.4031774603782238
  0.1263409683817684  0.4099156631958926  0.9031774603782239
  0.8736590316182316  0.4099156631958926  0.9031774603782239
  0.6263409683817686  0.5432799794178996  0.4031774603782238
  0.3736590316182316  0.9099156631958927  0.7765164111794789
  0.1263409683817685  0.0432799794178997  0.2765164111794789
  0.8736590316182316  0.0432799794178997  0.2765164111794789
  0.6263409683817686  0.9099156631958927  0.7765164111794789
