Zr  V  N                                
   1.0000000000000000     
    14.5521718200011438    0.0000000000000000    0.0000000000000000
     0.0000000000000000    5.0939286569011317    0.0000000000000000
     0.0000000000000000    0.0000000000000000    5.5450012626039218
   Zr   V    N 
     8     8    24
Direct
  0.0000000000000000  0.7265978213068962  0.5898469357788514
  0.5000000000000000  0.2734021786931038  0.0898469357788514
  0.0000000000000000  0.2540157280780591  0.0850216926357703
  0.5000000000000000  0.7459842719219409  0.5850216926357703
  0.2531118153924012  0.7595621061714724  0.4118708825347071
  0.2468881846075988  0.2404378938285276  0.9118708825347071
  0.7531118153924012  0.2404378938285276  0.9118708825347071
  0.7468881846075988  0.7595621061714724  0.4118708825347071
  0.8780547714619615  0.7166726103494057  0.0156424285722423
  0.6219452285380385  0.2833273896505943  0.5156424285722423
  0.3780547714619615  0.2833273896505943  0.5156424285722423
  0.1219452285380385  0.7166726103494057  0.0156424285722423
  0.8718604734846949  0.2118120619092778  0.4874124459644946
  0.6281395265153051  0.7881879380907222  0.9874124459644946
  0.3718604734846949  0.7881879380907222  0.9874124459644946
  0.1281395265153051  0.2118120619092778  0.4874124459644946
  0.0000000000000000  0.8736487050070281  0.9541668814197521
  0.5000000000000000  0.1263512949929719  0.4541668814197521
  0.0000000000000000  0.1322290013659924  0.4623558074021403
  0.5000000000000000  0.8677709986340076  0.9623558074021403
  0.2511269495314465  0.6267315600631989  0.0424254088563458
  0.2488730504685535  0.3732684399368011  0.5424254088563458
  0.7511269495314465  0.3732684399368011  0.5424254088563458
  0.7488730504685535  0.6267315600631989  0.0424254088563458
  0.9069035539095296  0.5705103917898739  0.3066291035918809
  0.5930964460904704  0.4294896082101261  0.8066291035918809
  0.4069035539095296  0.4294896082101261  0.8066291035918809
  0.0930964460904704  0.5705103917898739  0.3066291035918809
  0.8459098782241199  0.9328189368912732  0.6800969271095809
  0.6540901217758801  0.0671810631087268  0.1800969271095809
  0.3459098782241199  0.0671810631087268  0.1800969271095809
  0.1540901217758801  0.9328189368912732  0.6800969271095809
  0.4038273492202791  0.5658074687875327  0.3184448469756163
  0.0961726507797209  0.4341925312124673  0.8184448469756163
  0.9038273492202791  0.4341925312124673  0.8184448469756163
  0.5961726507797209  0.5658074687875327  0.3184448469756163
  0.3434907140161840  0.9324431525655257  0.6917837977768713
  0.1565092859838160  0.0675568474344743  0.1917837977768713
  0.8434907140161840  0.0675568474344743  0.1917837977768713
  0.6565092859838160  0.9324431525655257  0.6917837977768713

  0.00000000E+00  0.00000000E+00  0.00000000E+00
  0.00000000E+00  0.00000000E+00  0.00000000E+00
  0.00000000E+00  0.00000000E+00  0.00000000E+00
  0.00000000E+00  0.00000000E+00  0.00000000E+00
  0.00000000E+00  0.00000000E+00  0.00000000E+00
  0.00000000E+00  0.00000000E+00  0.00000000E+00
  0.00000000E+00  0.00000000E+00  0.00000000E+00
  0.00000000E+00  0.00000000E+00  0.00000000E+00
  0.00000000E+00  0.00000000E+00  0.00000000E+00
  0.00000000E+00  0.00000000E+00  0.00000000E+00
  0.00000000E+00  0.00000000E+00  0.00000000E+00
  0.00000000E+00  0.00000000E+00  0.00000000E+00
  0.00000000E+00  0.00000000E+00  0.00000000E+00
  0.00000000E+00  0.00000000E+00  0.00000000E+00
  0.00000000E+00  0.00000000E+00  0.00000000E+00
  0.00000000E+00  0.00000000E+00  0.00000000E+00
  0.00000000E+00  0.00000000E+00  0.00000000E+00
  0.00000000E+00  0.00000000E+00  0.00000000E+00
  0.00000000E+00  0.00000000E+00  0.00000000E+00
  0.00000000E+00  0.00000000E+00  0.00000000E+00
  0.00000000E+00  0.00000000E+00  0.00000000E+00
  0.00000000E+00  0.00000000E+00  0.00000000E+00
  0.00000000E+00  0.00000000E+00  0.00000000E+00
  0.00000000E+00  0.00000000E+00  0.00000000E+00
  0.00000000E+00  0.00000000E+00  0.00000000E+00
  0.00000000E+00  0.00000000E+00  0.00000000E+00
  0.00000000E+00  0.00000000E+00  0.00000000E+00
  0.00000000E+00  0.00000000E+00  0.00000000E+00
  0.00000000E+00  0.00000000E+00  0.00000000E+00
  0.00000000E+00  0.00000000E+00  0.00000000E+00
  0.00000000E+00  0.00000000E+00  0.00000000E+00
  0.00000000E+00  0.00000000E+00  0.00000000E+00
  0.00000000E+00  0.00000000E+00  0.00000000E+00
  0.00000000E+00  0.00000000E+00  0.00000000E+00
  0.00000000E+00  0.00000000E+00  0.00000000E+00
  0.00000000E+00  0.00000000E+00  0.00000000E+00
  0.00000000E+00  0.00000000E+00  0.00000000E+00
  0.00000000E+00  0.00000000E+00  0.00000000E+00
  0.00000000E+00  0.00000000E+00  0.00000000E+00
  0.00000000E+00  0.00000000E+00  0.00000000E+00
