Zr  V  N 
 1.0000000000000000
    14.5521718200011438    0.0000000000000000    0.0000000000000000
     0.0000000000000000    5.0939286569011317    0.0000000000000000
     0.0000000000000000    0.0000000000000000    5.5450012626039218
 Zr  V   N  
   8   8  24
Direct
  0.0000000000000000  0.7265978213068962  0.5898469357788514
  0.5000000000000000  0.1953949163827577  0.0898469357788514
  0.0000000000000000  0.2083192167927875  0.0930637645409054
  0.5000000000000000  0.7136735208968664  0.5930637645409054
  0.2531118153924014  0.7046216313971786  0.7084976379416149
  0.2468881846075988  0.2173711062924753  1.2084976379416148
  0.7531118153924012  0.2173711062924753  1.2084976379416148
  0.7468881846075986  0.7046216313971786  0.7084976379416149
  0.8780547714619615  0.7332146286118899  0.1393166072499242
  0.6219452285380385  0.1887781090777639  0.6393166072499243
  0.3780547714619615  0.1887781090777639  0.6393166072499243
  0.1219452285380385  0.7332146286118899  0.1393166072499242
  0.8718604734846949  0.2364549942386419  0.6581365956550895
  0.6281395265153051  0.6855377434510119  1.1581365956550895
  0.3718604734846948  0.6855377434510119  1.1581365956550895
  0.1281395265153051  0.2364549942386419  0.6581365956550895
  0.0000000000000000  0.6285638988401411  1.1803003053515848
  0.5000000000000000  0.2934288388495127  0.6803003053515845
  0.0000000000000000  0.2895103679341658  0.6748410213633259
  0.5000000000000000  0.6324823697554881  1.1748410213633258
  0.2511269495314465  0.7931753288026947  0.1214612870605219
  0.2488730504685535  0.1288174088869590  0.6214612870605219
  0.7511269495314465  0.1288174088869590  0.6214612870605219
  0.7488730504685535  0.7931753288026947  0.1214612870605219
  0.8560754908383548  0.5287323200670783  0.4674356376387486
  0.6439245091616452  0.3932604176225755  0.9674356376387486
  0.3560754908383548  0.3932604176225755  0.9674356376387486
  0.1439245091616453  0.5287323200670783  0.4674356376387486
  0.8967379412952946  0.8910408651684776  0.8409034611564487
  0.6032620587047053  0.0309518725211763  0.3409034611564488
  0.3967379412952947  0.0309518725211763  0.3409034611564488
  0.1032620587047053  0.8910408651684776  0.8409034611564487
  0.3535468198835330  0.5282616531714776  0.4596658693132959
  0.1464531801164669  0.3937310845181761  0.9596658693132959
  0.8535468198835331  0.3937310845181761  0.9596658693132959
  0.6464531801164669  0.5282616531714776  0.4596658693132959
  0.3937712433529300  0.8948973369494707  0.8330048201145509
  0.1062287566470701  0.0270954007401832  0.3330048201145510
  0.8937712433529300  0.0270954007401832  0.3330048201145510
  0.6062287566470700  0.8948973369494707  0.8330048201145509
