Zr  V  N 
 1.0000000000000000
    14.5521718200011438    0.0000000000000000    0.0000000000000000
     0.0000000000000000    5.0939286569011317    0.0000000000000000
     0.0000000000000000    0.0000000000000000    5.5450012626039218
 Zr  V   N  
   8   8  24
Direct
  0.0000000000000000  0.7265978213068962  0.5898469357788514
  0.5000000000000000  0.2421992737689653  0.0898469357788514
  0.0000000000000000  0.2357371235639505  0.0882385213978244
  0.5000000000000000  0.7330599715119112  0.5882385213978243
  0.2531118153924012  0.7375859162617548  0.5305215846974701
  0.2468881846075988  0.2312111788141067  1.0305215846974702
  0.7531118153924012  0.2312111788141067  1.0305215846974702
  0.7468881846075986  0.7375859162617548  0.5305215846974701
  0.8780547714619615  0.7232894176543994  0.0651121000433150
  0.6219452285380385  0.2455076774214621  0.5651121000433151
  0.3780547714619615  0.2455076774214621  0.5651121000433151
  0.1219452285380385  0.7232894176543994  0.0651121000433150
  0.8718604734846949  0.2216692348410234  0.5557021058407325
  0.6281395265153051  0.7471278602348381  1.0557021058407325
  0.3718604734846948  0.7471278602348381  1.0557021058407325
  0.1281395265153051  0.2216692348410234  0.5557021058407325
  0.0000000000000000  0.7756147825402733  1.0446202509924851
  0.5000000000000000  0.1931823125355882  0.5446202509924850
  0.0000000000000000  0.1951415479932617  0.5473498929866144
  0.5000000000000000  0.7736555470825999  1.0473498929866145
  0.2511269495314465  0.6933090675589972  0.0740397601380162
  0.2488730504685535  0.2754880275168642  0.5740397601380163
  0.7511269495314465  0.2754880275168642  0.5740397601380163
  0.7488730504685535  0.6933090675589972  0.0740397601380162
  0.8865723286810596  0.5537991631007557  0.3709517172106280
  0.6134276713189403  0.4149979319751059  0.8709517172106278
  0.3865723286810597  0.4149979319751059  0.8709517172106278
  0.1134276713189403  0.5537991631007557  0.3709517172106280
  0.8662411034525898  0.9161077082021548  0.7444195407283281
  0.6337588965474101  0.0526893868737066  0.2444195407283281
  0.3662411034525898  0.0526893868737066  0.2444195407283281
  0.1337588965474102  0.9161077082021548  0.7444195407283281
  0.3837151374855807  0.5507891425411107  0.3749332559106882
  0.1162848625144193  0.4180079525347509  0.8749332559106880
  0.8837151374855806  0.4180079525347509  0.8749332559106880
  0.6162848625144193  0.5507891425411107  0.3749332559106882
  0.3636029257508824  0.9174248263191037  0.7482722067119431
  0.1363970742491177  0.0513722687567579  0.2482722067119432
  0.8636029257508824  0.0513722687567579  0.2482722067119432
  0.6363970742491176  0.9174248263191037  0.7482722067119431
