In1 N1                                  
   1.0000000000000000     
     0.0000000000000000    2.4932870604546249    2.4932870604546249
     2.4932870604546249    0.0000000000000000    2.4932870604546249
     2.4932870604546249    2.4932870604546249    0.0000000000000000
   In   N 
     1     1
Direct
  0.0000000000000000  0.0000000000000000  0.0000000000000000
  0.2500000000000000  0.2500000000000000  0.2500000000000000

  0.00000000E+00  0.00000000E+00  0.00000000E+00
  0.00000000E+00  0.00000000E+00  0.00000000E+00
