La4                                     
   1.0000000000000000     
     1.9140647222702798   -3.3152560522906134    0.0000000000000000
     1.9140647222702796    3.3152560522906134   -0.0000000000000000
     0.0000000000000000    0.0000000000000000   12.2121858426300562
   La
     4
Direct
  0.0000000000000000  0.0000000000000000  0.0000000000000000
  0.0000000000000000  0.0000000000000000  0.5000000000000000
  0.3333330000000032  0.6666669999999968  0.2500000000000000
  0.6666669999999968  0.3333330000000032  0.7500000000000000

  0.00000000E+00  0.00000000E+00  0.00000000E+00
  0.00000000E+00  0.00000000E+00  0.00000000E+00
  0.00000000E+00  0.00000000E+00  0.00000000E+00
  0.00000000E+00  0.00000000E+00  0.00000000E+00
