Hf12 Sb4                                
   1.0000000000000000     
    -5.5825904582906851    5.5825887653929556    2.8121081612790242
     5.5825904582906851   -5.5825887653929556    2.8121081612790242
     5.5825887653929556    5.5825904582906851   -2.8121081612790242
   Hf   Sb
    12     4
Direct
  0.0977590053205191  0.1226844807374619  0.8122709660832115
  0.3104135146542433  0.2854880392373005  0.1877290339167814
  0.7145119607626995  0.9022409946794809  0.0249244754169311
  0.8773155192625381  0.6895864853457567  0.9750755245830689
  0.9474312465267118  0.6178685827467874  0.6195507410992533
  0.9983178416475411  0.3278805054274656  0.3804492589007467
  0.6721194945725344  0.0525687534732810  0.6704373362200968
  0.3821314172532126  0.0016821583524589  0.3295626637799032
  0.5444666864253733  0.5756617515080862  0.6010941861549881
  0.9745685653531098  0.9433735002704040  0.3989058138450119
  0.0566264997295960  0.4555333135746267  0.0311950650827271
  0.4243382484919138  0.0254314346468902  0.9688049349172800
  0.4354349093755161  0.1799830432834142  0.6728955457988519
  0.5070874974845765  0.7625393635766855  0.3271044542011481
  0.2374606364233074  0.5645650906244839  0.7445491339078885
  0.8200169567165858  0.4929125025154235  0.2554508660921115

  0.00000000E+00  0.00000000E+00  0.00000000E+00
  0.00000000E+00  0.00000000E+00  0.00000000E+00
  0.00000000E+00  0.00000000E+00  0.00000000E+00
  0.00000000E+00  0.00000000E+00  0.00000000E+00
  0.00000000E+00  0.00000000E+00  0.00000000E+00
  0.00000000E+00  0.00000000E+00  0.00000000E+00
  0.00000000E+00  0.00000000E+00  0.00000000E+00
  0.00000000E+00  0.00000000E+00  0.00000000E+00
  0.00000000E+00  0.00000000E+00  0.00000000E+00
  0.00000000E+00  0.00000000E+00  0.00000000E+00
  0.00000000E+00  0.00000000E+00  0.00000000E+00
  0.00000000E+00  0.00000000E+00  0.00000000E+00
  0.00000000E+00  0.00000000E+00  0.00000000E+00
  0.00000000E+00  0.00000000E+00  0.00000000E+00
  0.00000000E+00  0.00000000E+00  0.00000000E+00
  0.00000000E+00  0.00000000E+00  0.00000000E+00
