Ta6 N3                                  
   1.0000000000000000     
     2.6354560385956778   -4.5647450906061655    0.0000000000000000
     2.6354560385956778    4.5647450906061655    0.0000000000000000
    -0.0000000000000000   -0.0000000000000000    4.9139346425265700
   Ta   N 
     6     3
Direct
  0.6668610280391647  0.6668610280391647  0.7529098129098628
  0.0000000000000000  0.3331389719608353  0.7529098129098628
  0.3331389719608353  0.0000000000000000  0.7529098129098628
  0.3331389719608353  0.3331389719608353  0.2470901870901372
  0.0000000000000000  0.6668610280391647  0.2470901870901372
  0.6668610280391647  0.0000000000000000  0.2470901870901372
  0.6666669999999968  0.3333330000000032  0.5000000000000000
  0.3333330000000032  0.6666669999999968  0.5000000000000000
  0.0000000000000000  0.0000000000000000  0.0000000000000000

  0.00000000E+00  0.00000000E+00  0.00000000E+00
  0.00000000E+00  0.00000000E+00  0.00000000E+00
  0.00000000E+00  0.00000000E+00  0.00000000E+00
  0.00000000E+00  0.00000000E+00  0.00000000E+00
  0.00000000E+00  0.00000000E+00  0.00000000E+00
  0.00000000E+00  0.00000000E+00  0.00000000E+00
  0.00000000E+00  0.00000000E+00  0.00000000E+00
  0.00000000E+00  0.00000000E+00  0.00000000E+00
  0.00000000E+00  0.00000000E+00  0.00000000E+00
