La  W  N 
 1.0000000000000000
     5.5940376620642542    0.0000000000000000   -0.0011463390017610
     0.0000000000000000    5.5970719938038878    0.0000000000000000
    -0.0489732435651068    0.0000000000000000    8.0856575722147959
 La  W   N  
   4   4  12
Direct
  0.5234929589696975  0.2507866985228091  0.2652303678833476
  0.0234929589696974  0.7507866985228090  0.2652303678833476
  0.0234929589696974  0.7507866985228090  0.7652303678833476
  0.5234929589696975  0.2507866985228091  0.7652303678833475
  0.5234929589696975  0.7491170950732666  0.0152303773833502
  0.0234929589696975  0.2524563319723541  0.0152303773833502
  0.0234929589696975  0.2491170650732641  0.5152303583833451
  0.5234929589696975  0.7524563019723516  0.5152303583833451
  0.7734929664696998  0.0007866840228097  0.0152303748833483
  0.2734929514696951  1.0007866840228097  0.0152303748833482
  0.2734929514696951  0.5007867130228085  0.5152303608833469
  0.7734929664696998  0.5007867130228085  0.5152303608833469
  0.2734929589696975  0.5007866985228090  0.0152303593833487
  0.7734929589696975  0.5007866985228091  0.0152303593833487
  0.7734929589696975  1.0007866985228091  0.5152303763833465
  0.2734929589696975  0.0007866985228091  0.5152303763833463
  0.5234929589696975  0.7507866985228090  0.2652303678833476
  0.0234929589696974  0.2507866985228092  0.2652303678833475
  0.0234929589696976  0.2507866985228091  0.7652303678833476
  0.5234929589696975  0.7507866985228092  0.7652303678833476
