La  W  N 
 1.0000000000000000
     5.5940376620642542    0.0000000000000000   -0.0011463390017610
     0.0000000000000000    5.5970719938038878    0.0000000000000000
    -0.0489732435651068    0.0000000000000000    8.0856575722147959
 La  W   N  
   4   4  12
Direct
  0.5234929589696975  0.2507866985228091  0.2652303678833476
  0.0234929589696974  0.7518356298865546  0.2652303678833476
  0.0234929589696974  0.7507866985228092  0.7652303678833476
  0.5234929589696975  0.2518356298865546  0.7652303678833475
  0.5247825634595907  0.7496415607551393  0.0179365185137796
  0.0247825487929229  0.2529807976542268  0.0179365185137796
  0.0247825487929229  0.2496415307551369  0.5179364995137744
  0.5247825634595907  0.7529807676542243  0.5179364995137744
  0.7969893016713494 -0.0305836620103401  0.0055870004450765
  0.2969892866713445  1.0332059614197049  0.0055870004450764
  0.2969892866713446  0.4694163669896587  0.5055869864450752
  0.7969893016713492  0.5332059904197038  0.5055869864450753
  0.2317479069992504  0.5345588138753616  0.0155512082969587
  0.7317479069992503  0.4680635145340019  0.0155512082969587
  0.7317479069992503  1.0345588138753619  0.5155512252969564
  0.2317479069992504 -0.0319364854659982  0.5155512252969564
  0.5122019474809273  0.7620418492453616  0.2617813052220725
  0.0122019474809272  0.2405804791640023  0.2617813052220723
  0.0122019474809274  0.2620418492453614  0.7617813052220725
  0.5122019474809273  0.7405804791640023  0.7617813052220723
