La  W  N 
 1.0000000000000000
     5.5940376620642542    0.0000000000000000   -0.0011463390017610
     0.0000000000000000    5.5970719938038878    0.0000000000000000
    -0.0489732435651068    0.0000000000000000    8.0856575722147959
 La  W   N  
   4   4  12
Direct
  0.5234929589696975  0.2507866985228091  0.2652303678833476
  0.0234929589696975  0.7492133014771909  0.2652303678833475
  0.0234929589696975  0.7507866985228090  0.7652303678833476
  0.5234929589696975  0.2492133014771909  0.7652303678833475
  0.5215585522348576  0.7483303965504575  0.0111711656877063
  0.0215585742348594  0.2516696334495450  0.0111711656877063
  0.0215585742348594  0.2483303665504550  0.5111711466877010
  0.5215585522348576  0.7516696034495425  0.5111711466877010
  0.7382484636672259  0.0478422030725341  0.0296954365407558
  0.2382484486672212  0.9521577679274670  0.0296954365407558
  0.2382484486672212  0.5478422320725329  0.5296954225407544
  0.7382484636672259  0.4521577969274659  0.5296954225407545
  0.3361105369253679  0.4501285254939802  0.0147490860129338
  0.8361105369253679  0.5498714745060198  0.0147490860129338
  0.8361105369253679  0.9501285254939803  0.5147491030129315
  0.3361105369253679  0.0498714745060198  0.5147491030129315
  0.5404294762028526  0.7339039724389805  0.2704039618752602
  0.0404294762028528  0.2660960275610194  0.2704039618752602
  0.0404294762028528  0.2339039724389806  0.7704039618752602
  0.5404294762028526  0.7660960275610194  0.7704039618752602
