La  W  N 
 1.0000000000000000
     5.5940376620642542    0.0000000000000000   -0.0011463390017610
     0.0000000000000000    5.5970719938038878    0.0000000000000000
    -0.0489732435651068    0.0000000000000000    8.0856575722147959
 La  W   N  
   4   4  12
Direct
  0.5234929589696975  0.2507866985228091  0.2652303678833476
  0.0234929589696974  0.7513111642046819  0.2652303678833476
  0.0234929589696974  0.7507866985228090  0.7652303678833476
  0.5234929589696975  0.2513111642046819  0.7652303678833475
  0.5241377612146442  0.7493793279142030  0.0165834479485649
  0.0241377538813102  0.2527185648132905  0.0165834479485649
  0.0241377538813102  0.2493792979142005  0.5165834289485598
  0.5241377612146442  0.7527185348132880  0.5165834289485597
  0.7852411340705246 -0.0148984889937652  0.0104086876642124
  0.2852411190705199  1.0169963227212573  0.0104086876642123
  0.2852411190705199  0.4851015400062336  0.5104086736642111
  0.7852411340705246  0.5169963517212562  0.5104086736642111
  0.2526204329844739  0.5176727561990854  0.0153907838401537
  0.7526204329844739  0.4844251065284055  0.0153907838401537
  0.7526204329844739  1.0176727561990857  0.5153908008401515
  0.2526204329844739 -0.0155748934715946  0.5153908008401514
  0.5178474532253123  0.7564142738840853  0.2635058365527100
  0.0178474532253123  0.2456835888434057  0.2635058365527099
  0.0178474532253125  0.2564142738840853  0.7635058365527102
  0.5178474532253123  0.7456835888434056  0.7635058365527100
