La  W  N 
 1.0000000000000000
     5.5940376620642542    0.0000000000000000   -0.0011463390017610
     0.0000000000000000    5.5970719938038878    0.0000000000000000
    -0.0489732435651068    0.0000000000000000    8.0856575722147959
 La  W   N  
   4   4  12
Direct
  0.5234929589696975  0.2507866985228091  0.2652303678833476
  0.0234929589696973  0.7523600955684273  0.2652303678833477
  0.0234929589696973  0.7507866985228092  0.7652303678833476
  0.5234929589696975  0.2523600955684273  0.7652303678833475
  0.5254273657045374  0.7499037935960758  0.0192895890789942
  0.0254273437045356  0.2532430304951632  0.0192895890789942
  0.0254273437045356  0.2499037635960732  0.5192895700789890
  0.5254273657045374  0.7532430004951607  0.5192895700789890
  0.8087374692721738 -0.0462688350269147  0.0007653132259407
  0.3087374542721691  1.0494156001181523  0.0007653132259406
  0.3087374542721691  0.4537311939730841  0.5007652992259394
  0.8087374692721738  0.5494156291181513  0.5007652992259394
  0.2108753810140271  0.5514448715516378  0.0157116327537637
  0.7108753810140271  0.4517019225395985  0.0157116327537637
  0.7108753810140271  1.0514448715516380  0.5157116497537615
  0.2108753810140271 -0.0482980774604015  0.5157116497537615
  0.5065564417365424  0.7676694246066377  0.2600567738914349
  0.0065564417365421  0.2354773694845989  0.2600567738914348
  0.0065564417365424  0.2676694246066376  0.7600567738914351
  0.5065564417365424  0.7354773694845989  0.7600567738914350
