La  W  N 
 1.0000000000000000
     5.5940376620642542    0.0000000000000000   -0.0011463390017610
     0.0000000000000000    5.5970719938038878    0.0000000000000000
    -0.0489732435651068    0.0000000000000000    8.0856575722147959
 La  W   N  
   4   4  12
Direct
  0.5234929589696975  0.2507866985228091  0.2652303678833476
  0.0234929589696974  0.7502622328409363  0.2652303678833476
  0.0234929589696974  0.7507866985228090  0.7652303678833476
  0.5234929589696975  0.2502622328409363  0.7652303678833475
  0.5228481567247508  0.7488548622323302  0.0138773068181356
  0.0228481640580848  0.2521940991314177  0.0138773068181356
  0.0228481640580848  0.2488548322323278  0.5138772878181304
  0.5228481567247509  0.7521940691314152  0.5138772878181304
  0.7617447988688751  0.0164718570393844  0.0200520621024841
  0.2617447838688705  0.9845770453243622  0.0200520621024840
  0.2617447838688706  0.5164718860393833  0.5200520481024827
  0.7617447988688754  0.4845770743243611  0.5200520481024828
  0.2943654849549209  0.4839006408465328  0.0150699349265438
  0.7943654849549209  0.5171482905172127  0.0150699349265438
  0.7943654849549209  0.9839006408465328  0.5150699519265415
  0.2943654849549209  0.0171482905172126  0.5150699519265416
  0.5291384647140825  0.7451591231615329  0.2669548992139851
  0.0291384647140825  0.2558898082022126  0.2669548992139851
  0.0291384647140826  0.2451591231615330  0.7669548992139851
  0.5291384647140825  0.7558898082022125  0.7669548992139852
