La  W  N 
 1.0000000000000000
     5.5940376620642542    0.0000000000000000   -0.0011463390017610
     0.0000000000000000    5.5970719938038878    0.0000000000000000
    -0.0489732435651068    0.0000000000000000    8.0856575722147959
 La  W   N  
   4   4  12
Direct
  0.5234929589696975  0.2507866985228091  0.2652303678833476
  0.0234929589696975  0.7497377671590636  0.2652303678833475
  0.0234929589696975  0.7507866985228090  0.7652303678833476
  0.5234929589696975  0.2497377671590637  0.7652303678833475
  0.5222033544798043  0.7485926293913939  0.0125242362529210
  0.0222033691464721  0.2519318662904814  0.0125242362529210
  0.0222033691464721  0.2485925993913914  0.5125242172529157
  0.5222033544798043  0.7519318362904789  0.5125242172529156
  0.7499966312680504  0.0321570300559593  0.0248737493216199
  0.2499966162680458  0.9683674066259147  0.0248737493216199
  0.2499966162680458  0.5321570590559580  0.5248737353216186
  0.7499966312680506  0.4683674356259134  0.5248737353216186
  0.3152380109401444  0.4670145831702565  0.0149095104697388
  0.8152380109401443  0.5335098825116162  0.0149095104697388
  0.8152380109401443  0.9670145831702566  0.5149095274697365
  0.3152380109401444  0.0335098825116162  0.5149095274697366
  0.5347839704584677  0.7395315478002568  0.2686794305446227
  0.0347839704584677  0.2609929178816159  0.2686794305446226
  0.0347839704584677  0.2395315478002568  0.7686794305446227
  0.5347839704584677  0.7609929178816159  0.7686794305446226
