La  W  N 
 1.0000000000000000
     7.9609305260160230    0.0000000000000000   -0.0004348670071727
     0.0000000000000000    5.6742562873221338    0.0000000000000000
    -0.0557867464983825    0.0000000000000000    5.6258210254504197
 La  W   N  
   4   4  12
Direct
  0.3539196553854966  0.2505246818799165  0.9099062664188727
  0.3539196553854966  0.7508744697998609  0.4099062664188730
  0.8539410522584587  0.7505340107944416  0.4098227968639048
  0.8539410522584587  0.2508651408853359  0.9098227968639050
  0.6038047470164972  0.7508955492925153  0.9099084194691975
  0.6038047470164972  0.2505036023872620  0.4099084194691978
  0.1038081243181995  0.2509072190155450  0.4099098443921400
  0.1038081243181995  0.7504919326642323  0.9099098443921397
  0.1098657998314135  1.0090637344948472  0.1450001383838029
  0.1098657998314135 -0.0076645828150699  0.6450001383838031
  0.8507870353153398  0.2312441410416377  0.4015873908121967
  0.8507870353153398  0.7701550106381396  0.9015873908121970
  0.5901670949100626 -0.0065236218498063  0.1605822886129319
  0.5901670949100626  1.0079227735295837  0.6605822886129320
  0.3507903820333101  0.7312374100789467  0.9015598738214484
  0.3507903820333101  0.2701617416008306  0.4015598738214484
  0.0901351556396058  0.5074730710129434  0.1601506299261532
  0.0901351556396058  0.4939260806668339  0.6601506299261535
  0.6098430250982317  0.4919048692657715  0.1445140702176630
  0.6098430250982317  0.5094942824140057  0.6445140702176633
