La  W  N 
 1.0000000000000000
     7.9609305260160230    0.0000000000000000   -0.0004348670071727
     0.0000000000000000    5.6742562873221338    0.0000000000000000
    -0.0557867464983825    0.0000000000000000    5.6258210254504197
 La  W   N  
   4   4  12
Direct
  0.3539196553854967  0.2505246818799165  0.9099062664188728
  0.3539196553854967  0.7512242577198052  0.4099062664188731
  0.8539624491314208  0.7505433397089666  0.4097393273089370
  0.8539624491314208  0.2512055998907552  0.9097393273089370
  0.6036915272983489  0.7510646083909727  0.9099112849809935
  0.6036915272983489  0.2506843312087491  0.4099112849809938
  0.1036949046000512  0.2510879478370321  0.4099127099039360
  0.1036949046000512  0.7506609917626896  0.9099127099039358
  0.1158005569107395  1.0178180610693570  0.1298509762656633
  0.1158005569107395 -0.0160691214696355  0.6298509762656634
  0.8476544152451831  0.2119636002033590  0.3932685152055208
  0.8476544152451831  0.7897853393963626  0.8932685152055209
  0.5763985647994002 -0.0133470743212090  0.1610424814636018
  0.5763985647994002  1.0150960139209309  0.6610424814636018
  0.3476611086811235  0.7119501382779770  0.8932134812240241
  0.3476611086811235  0.2897988013217445  0.3932134812240243
  0.0763666255289434  0.5146463114042905  0.1606108227768231
  0.0763666255289434  0.4871026281954312  0.6606108227768234
  0.6157777821775576  0.4835003306112058  0.1293649080995234
  0.6157777821775576  0.5182486089885158  0.6293649080995238
