La  W  N 
 1.0000000000000000
     7.9609305260160230    0.0000000000000000   -0.0004348670071727
     0.0000000000000000    5.6742562873221338    0.0000000000000000
    -0.0557867464983825    0.0000000000000000    5.6258210254504197
 La  W   N  
   4   4  12
Direct
  0.3539196553854967  0.2505246818799165  0.9099062664188728
  0.3539196553854967  0.7515740456397495  0.4099062664188733
  0.8539838460043828  0.7505526686234916  0.4096558577539691
  0.8539838460043828  0.2515460588961745  0.9096558577539692
  0.6035783075802006  0.7512336674894300  0.9099141504927893
  0.6035783075802006  0.2508650600302361  0.4099141504927899
  0.1035816848819029  0.2512686766585191  0.4099155754157321
  0.1035816848819029  0.7508300508611470  0.9099155754157316
  0.1217353139900654  1.0265723876438670  0.1147018141475239
  0.1217353139900654 -0.0244736601242010  0.6147018141475240
  0.8445217951750266  0.1926830593650805  0.3849496395988448
  0.8445217951750266  0.8094156681545855  0.8849496395988451
  0.5626300346887381 -0.0201705267926116  0.1615026743142717
  0.5626300346887381  1.0222692543122778  0.6615026743142716
  0.3445318353289371  0.6926628664770076  0.8848670886265999
  0.3445318353289371  0.3094358610426582  0.3848670886266001
  0.0625980954182812  0.5218195517956374  0.1610710156274930
  0.0625980954182812  0.4802791757240285  0.6610710156274933
  0.6217125392568837  0.4750957919566403  0.1142157459813839
  0.6217125392568837  0.5270029355630256  0.6142157459813844
