La  W  N 
 1.0000000000000000
     7.9609305260160230    0.0000000000000000   -0.0004348670071727
     0.0000000000000000    5.6742562873221338    0.0000000000000000
    -0.0557867464983825    0.0000000000000000    5.6258210254504197
 La  W   N  
   4   4  12
Direct
  0.3539196553854966  0.2505246818799165  0.9099062664188725
  0.3539196553854966  0.7498251060400278  0.4099062664188725
  0.8538768616395724  0.7505060240508664  0.4100732055288084
  0.8538768616395724  0.2498437638690779  0.9100732055288085
  0.6041444061709421  0.7503883719971434  0.9098998229338098
  0.6041444061709421  0.2499614159228010  0.4098998229338096
  0.1041477834726444  0.2503650325510840  0.4099012478567518
  0.1041477834726444  0.7499847553688603  0.9099012478567521
  0.0920615285934356  0.9828007547713172  0.1904476247382217
  0.0920615285934356  0.0175490331486271  0.6904476247382219
  0.8601848955258098  0.2890857635564737  0.4265440176322246
  0.8601848955258098  0.7112640243634705  0.9265440176322245
  0.6314726852420497  0.0139467355644017  0.1592017100609223
  0.6314726852420497  0.9864030523555427  0.6592017100609224
  0.3601782020898697  0.7890992254818556  0.9265990516137211
  0.3601782020898697  0.2112505624380888  0.4265990516137210
  0.1314407459715928  0.4859533498389024  0.1587700513741436
  0.1314407459715928  0.5143964380810419  0.6587700513741437
  0.5920387538602537  0.5171184852294685  0.1899615565720819
  0.5920387538602537  0.4832313026904759  0.6899615565720819
