La  W  N 
 1.0000000000000000
     7.9609305260160230    0.0000000000000000   -0.0004348670071727
     0.0000000000000000    5.6742562873221338    0.0000000000000000
    -0.0557867464983825    0.0000000000000000    5.6258210254504197
 La  W   N  
   4   4  12
Direct
  0.3539196553854966  0.2505246818799165  0.9099062664188727
  0.3539196553854966  0.7505246818799164  0.4099062664188728
  0.8539196553854966  0.7505246818799164  0.4099062664188727
  0.8539196553854966  0.2505246818799166  0.9099062664188728
  0.6039179667346455  0.7507264901940580  0.9099055539574017
  0.6039179667346455  0.2503228735657750  0.4099055539574017
  0.1039213440363478  0.2507264901940580  0.4099069788803439
  0.1039213440363478  0.7503228735657750  0.9099069788803438
  0.1039310427520875  1.0003094079203372  0.1601493005019426
  0.1039310427520875  0.0007399558394958  0.6601493005019428
  0.8539196553854966  0.2505246818799164  0.4099062664188727
  0.8539196553854964  0.7505246818799164  0.9099062664188728
  0.6039356250207250  0.0002998306215964  0.1601220957622621
  0.6039356250207251  1.0007495331382368  0.6601220957622621
  0.3539196553854966  0.7505246818799164  0.9099062664188727
  0.3539196553854966  0.2505246818799165  0.4099062664188727
  0.1039036857502682  0.5002998306215963  0.1596904370754833
  0.1039036857502682  0.5007495331382366  0.6596904370754835
  0.6039082680189058  0.5003094079203372  0.1596632323358027
  0.6039082680189057  0.5007399558394958  0.6596632323358029
