La  W  N 
 1.0000000000000000
     7.9609305260160230    0.0000000000000000   -0.0004348670071727
     0.0000000000000000    5.6742562873221338    0.0000000000000000
    -0.0557867464983825    0.0000000000000000    5.6258210254504197
 La  W   N  
   4   4  12
Direct
  0.3539196553854966  0.2505246818799165  0.9099062664188727
  0.3539196553854966  0.7501748939599722  0.4099062664188727
  0.8538982585125345  0.7505153529653914  0.4099897359738405
  0.8538982585125345  0.2501842228744972  0.9099897359738406
  0.6040311864527937  0.7505574310956007  0.9099026884456056
  0.6040311864527937  0.2501421447442880  0.4099026884456056
  0.1040345637544961  0.2505457613725710  0.4099041133685478
  0.1040345637544961  0.7501538144673177  0.9099041133685479
  0.0979962856727616  0.9915550813458274  0.1752984626200821
  0.0979962856727616  0.0091444944940614  0.6752984626200823
  0.8570522754556532  0.2698052227181950  0.4182251420255486
  0.8570522754556532  0.7308943531216936  0.9182251420255488
  0.6177041551313874  0.0071232830929991  0.1596619029115922
  0.6177041551313874  0.9935762927468897  0.6596619029115922
  0.3570489287376831  0.7698119536808861  0.9182526590162968
  0.3570489287376831  0.2308876221590027  0.4182526590162969
  0.1176722158609305  0.4931265902302494  0.1592302442248135
  0.1176722158609305  0.5075729856096391  0.6592302442248136
  0.5979735109395798  0.5087139465749028  0.1748123944539423
  0.5979735109395798  0.4919856292649858  0.6748123944539425
