La  W  N 
 1.0000000000000000
     7.9609305260160230    0.0000000000000000   -0.0004348670071727
     0.0000000000000000    5.6742562873221338    0.0000000000000000
    -0.0557867464983825    0.0000000000000000    5.6258210254504197
 La  W   N  
   4   4  12
Direct
  0.3539196553854966  0.2505246818799165  0.9099062664188725
  0.3539196553854966  0.7494753181200835  0.4099062664188723
  0.8538554647666103  0.7504966951363414  0.4101566750837762
  0.8538554647666103  0.2495033048636586  0.9101566750837764
  0.6042576258890904  0.7502193128986860  0.9098969574220137
  0.6042576258890904  0.2497806871013140  0.4098969574220135
  0.1042610031907927  0.2501843037295970  0.4098983823449557
  0.1042610031907927  0.7498156962704030  0.9098983823449560
  0.0861267715141096  0.9740464281968073  0.2055967868563613
  0.0861267715141096  0.0259535718031927  0.7055967868563615
  0.8633175155959665  0.3083663043947524  0.4348628932389005
  0.8633175155959665  0.6916336956052476  0.9348628932389005
  0.6452412153527121  0.0207701880358044  0.1587415172102524
  0.6452412153527121  0.9792298119641957  0.6587415172102526
  0.3633074754420562  0.8083864972828253  0.9349454442111454
  0.3633074754420562  0.1916135027171748  0.4349454442111453
  0.1452092760822552  0.4787801094475553  0.1583098585234737
  0.1452092760822552  0.5212198905524446  0.6583098585234737
  0.5861039967809278  0.5255230238840340  0.2051107186902215
  0.5861039967809278  0.4744769761159660  0.7051107186902215
