Hf10 Sb18                               
   1.0000000000000000     
     8.7258818690056703   -0.0000003433039928    0.0000000000000000
     0.0000003433039928    8.7258818690056703   -0.0000000000000000
     0.0000000000000000    0.0000000000000000    8.6465980926667072
   Hf   Sb
    10    18
Direct
  0.5000000000000000  0.0000000000000000  0.2563519080057475
  0.0000000000000000  0.5000000000000000  0.7436480919942525
  0.1051698823806575  0.7935945553747601  0.2666267877711732
  0.3948301176193425  0.7064054446252399  0.7333732122288268
  0.2935945553747601  0.3948301176193425  0.2666267877711732
  0.8948301176193425  0.2064054446252399  0.2666267877711732
  0.6051698823806575  0.2935945553747601  0.7333732122288268
  0.2064054446252399  0.1051698823806575  0.7333732122288268
  0.7064054446252399  0.6051698823806575  0.2666267877711732
  0.7935945553747601  0.8948301176193425  0.7333732122288268
  0.4192084184313813  0.2297729253970360  0.0023842055769023
  0.7702270746029569  0.4192084184313813  0.9976157944230977
  0.1970301815064630  0.0972550589326389  0.3830978937567693
  0.0972550589326389  0.8029698184935370  0.6169021062432307
  0.3029698184935370  0.4027449410673611  0.6169021062432307
  0.4027449410673611  0.6970301815064630  0.3830978937567693
  0.5807915815686187  0.7702270746029569  0.0023842055769023
  0.0000000000000000  0.5000000000000000  0.3926524886507607
  0.6970301815064630  0.5972550589326389  0.6169021062432307
  0.9192084184313813  0.7297729253970431  0.9976157944230977
  0.2297729253970360  0.5807915815686187  0.9976157944230977
  0.0807915815686187  0.2702270746029569  0.9976157944230977
  0.5972550589326389  0.3029698184935370  0.3830978937567693
  0.5000000000000000  0.0000000000000000  0.6073475113492393
  0.7297729253970431  0.0807915815686187  0.0023842055769023
  0.9027449410673611  0.1970301815064630  0.6169021062432307
  0.2702270746029569  0.9192084184313813  0.0023842055769023
  0.8029698184935370  0.9027449410673611  0.3830978937567693

  0.00000000E+00  0.00000000E+00  0.00000000E+00
  0.00000000E+00  0.00000000E+00  0.00000000E+00
  0.00000000E+00  0.00000000E+00  0.00000000E+00
  0.00000000E+00  0.00000000E+00  0.00000000E+00
  0.00000000E+00  0.00000000E+00  0.00000000E+00
  0.00000000E+00  0.00000000E+00  0.00000000E+00
  0.00000000E+00  0.00000000E+00  0.00000000E+00
  0.00000000E+00  0.00000000E+00  0.00000000E+00
  0.00000000E+00  0.00000000E+00  0.00000000E+00
  0.00000000E+00  0.00000000E+00  0.00000000E+00
  0.00000000E+00  0.00000000E+00  0.00000000E+00
  0.00000000E+00  0.00000000E+00  0.00000000E+00
  0.00000000E+00  0.00000000E+00  0.00000000E+00
  0.00000000E+00  0.00000000E+00  0.00000000E+00
  0.00000000E+00  0.00000000E+00  0.00000000E+00
  0.00000000E+00  0.00000000E+00  0.00000000E+00
  0.00000000E+00  0.00000000E+00  0.00000000E+00
  0.00000000E+00  0.00000000E+00  0.00000000E+00
  0.00000000E+00  0.00000000E+00  0.00000000E+00
  0.00000000E+00  0.00000000E+00  0.00000000E+00
  0.00000000E+00  0.00000000E+00  0.00000000E+00
  0.00000000E+00  0.00000000E+00  0.00000000E+00
  0.00000000E+00  0.00000000E+00  0.00000000E+00
  0.00000000E+00  0.00000000E+00  0.00000000E+00
  0.00000000E+00  0.00000000E+00  0.00000000E+00
  0.00000000E+00  0.00000000E+00  0.00000000E+00
  0.00000000E+00  0.00000000E+00  0.00000000E+00
  0.00000000E+00  0.00000000E+00  0.00000000E+00
