Ti3                                     
   1.0000000000000000     
     2.3259998315427759   -4.0287501833854042    0.0000000000000000
     2.3259998315427759    4.0287501833854042    0.0000000000000000
    -0.0000000000000000    0.0000000000000000    2.7574191747779286
   Ti
     3
Direct
  0.0000000000000000  0.0000000000000000  0.0000000000000000
  0.3333330000000032  0.6666669999999968  0.5000000000000000
  0.6666669999999968  0.3333330000000032  0.5000000000000000

  0.00000000E+00  0.00000000E+00  0.00000000E+00
  0.00000000E+00  0.00000000E+00  0.00000000E+00
  0.00000000E+00  0.00000000E+00  0.00000000E+00
