Ga2 N2                                  
   1.0000000000000000     
     1.5892289314004673   -2.7526261976267556   -0.0000000000000000
     1.5892289314004673    2.7526261976267556    0.0000000000000000
     0.0000000000000000    0.0000000000000000    5.1714805517164724
   Ga   N 
     2     2
Direct
  0.6666669999999968  0.3333330000000032  0.4989656542408270
  0.3333330000000032  0.6666669999999968  0.9989656542408270
  0.6666669999999968  0.3333330000000032  0.8760343457591730
  0.3333330000000032  0.6666669999999968  0.3760343457591730

  0.00000000E+00  0.00000000E+00  0.00000000E+00
  0.00000000E+00  0.00000000E+00  0.00000000E+00
  0.00000000E+00  0.00000000E+00  0.00000000E+00
  0.00000000E+00  0.00000000E+00  0.00000000E+00
