Sc Mo  N 
 1.0000000000000000
     5.5588820672531458    0.0000000000000000    0.0000000000000000
     0.0000000000000000    5.1613783459727074    0.0000000000000000
     0.0000000000000000    0.0000000000000000    7.5325840228771526
 Sc  Mo  N  
   4   4  12
Direct
  0.0776572456356561  0.4846753327323653  0.2709657173956970
  1.0776572456356561  0.4846753327323653  0.7709657173956970
  0.5776572456356561 -0.0153246672676347  0.2709657173956970
  0.5776572456356561  0.9846753327323653  0.7709657173956970
  1.0427555315177699  0.0023882531161092  1.0209657173956970
  0.1125589597535423  0.9669624123486213  0.5209657173956971
  0.5427555315177699  0.4669624123486216  1.0209657173956970
  0.6125589597535424  0.5023882531161092  0.5209657173956971
  0.3971918811539013  0.1649396631958950  0.0209657173956971
  0.7581226101174111  0.8044110022688357  0.5209657173956970
  0.8971918811539012  0.3044110022688358  0.0209657173956971
  0.2581226101174109  0.6649396631958949  0.5209657173956970
  0.3793552693141536  0.1720601706758416  0.5209657173956970
  0.7759592219571587  0.7972904947888891  1.0209657173956970
  0.8793552693141536  0.2972904947888891  0.5209657173956970
  0.2759592219571588  0.6720601706758415  1.0209657173956970
  1.0776572456356561  0.9846753327323653  0.2709657173956970
  0.0776572456356561 -0.0153246672676347  0.7709657173956971
  0.5776572456356561  0.4846753327323653  0.2709657173956970
  0.5776572456356561  0.4846753327323653  0.7709657173956971
