Sc Mo  N 
 1.0000000000000000
     5.5588820672531458    0.0000000000000000    0.0000000000000000
     0.0000000000000000    5.1613783459727074    0.0000000000000000
     0.0000000000000000    0.0000000000000000    7.5325840228771526
 Sc  Mo  N  
   4   4  12
Direct
  0.0776572456356561  0.4846753327323653  0.2709657173956970
  0.9741142514547815  0.5051082224225448  0.7709657173956970
  0.5776572456356561  0.0051082224225448  0.2709657173956970
  0.4741142514547814  0.9846753327323653  0.7709657173956970
  0.9909840344273324  0.0126046979611989  1.0048492570704799
  0.0607874626631049  0.9771788571937112  0.5048492570704801
  0.4909840344273326  0.4771788571937113  1.0048492570704799
  0.5607874626631050  0.5126046979611989  0.5048492570704801
  0.3454203840634639  0.1751561080409847  0.0593686834557303
  0.7063511130269737  0.8146274471139253  0.5593686834557302
  0.8454203840634639  0.3146274471139255  0.0593686834557303
  0.2063511130269736  0.6751561080409847  0.5593686834557302
  0.3275837722237162  0.1822766155209313  0.4737575194043255
  0.7241877248667213  0.8075069396339788  0.9737575194043255
  0.8275837722237160  0.3075069396339788  0.4737575194043255
  0.2241877248667214  0.6822766155209312  0.9737575194043255
  0.9980654649000443  0.9128307522261329  0.2660176849999232
  0.0537060321903932  0.0769528029287773  0.7660176849999232
  0.4980654649000444  0.5769528029287774  0.2660176849999232
  0.5537060321903932  0.4128307522261327  0.7660176849999232
