Sc Mo  N 
 1.0000000000000000
     5.5588820672531458    0.0000000000000000    0.0000000000000000
     0.0000000000000000    5.1613783459727074    0.0000000000000000
     0.0000000000000000    0.0000000000000000    7.5325840228771526
 Sc  Mo  N  
   4   4  12
Direct
  0.0776572456356561  0.4846753327323653  0.2709657173956970
  0.9223427543643440  0.5153246672676346  0.7709657173956970
  0.5776572456356561  0.0153246672676346  0.2709657173956970
  0.4223427543643439  0.9846753327323653  0.7709657173956970
  0.9650982858821138  0.0177129203837438  0.9967910269078714
  0.0349017141178862  0.9822870796162561  0.4967910269078715
  0.4650982858821138  0.4822870796162562  0.9967910269078714
  0.5349017141178862  0.5177129203837438  0.4967910269078715
  0.3195346355182451  0.1802643304635296  0.0785701664857470
  0.6804653644817549  0.8197356695364703  0.5785701664857469
  0.8195346355182451  0.3197356695364704  0.0785701664857470
  0.1804653644817549  0.6802643304635295  0.5785701664857469
  0.3016980236784974  0.1873848379434762  0.4501534204086397
  0.6983019763215026  0.8126151620565237  0.9501534204086397
  0.8016980236784974  0.3126151620565237  0.4501534204086397
  0.1983019763215026  0.6873848379434760  0.9501534204086397
  0.9582695745322384  0.8769084619730165  0.2635436688020363
  0.0417304254677617  0.1230915380269835  0.7635436688020363
  0.4582695745322383  0.6230915380269835  0.2635436688020363
  0.5417304254677617  0.3769084619730165  0.7635436688020363
