Sc Mo  N 
 1.0000000000000000
     5.5588820672531458    0.0000000000000000    0.0000000000000000
     0.0000000000000000    5.1613783459727074    0.0000000000000000
     0.0000000000000000    0.0000000000000000    7.5325840228771526
 Sc  Mo  N  
   4   4  12
Direct
  0.0776572456356561  0.4846753327323653  0.2709657173956970
  1.2329717369069684  0.4540259981970961  0.7709657173956971
  0.5776572456356561 -0.0459740018029040  0.2709657173956970
  0.7329717369069684  0.9846753327323655  0.7709657173956971
  1.1204127771534260 -0.0129364141515254  1.0451404078835225
  0.1902162053891983  0.9516377450809868  0.5451404078835227
  0.6204127771534260  0.4516377450809869  1.0451404078835225
  0.6902162053891985  0.4870635858484745  0.5451404078835227
  0.4748491267895574  0.1496149959282604 -0.0366387316943529
  0.8357798557530672  0.7890863350012011  0.4633612683056469
  0.9748491267895575  0.2890863350012011 -0.0366387316943529
  0.3357798557530670  0.6496149959282603  0.4633612683056469
  0.4570125149498097  0.1567355034082069  0.5917780143827541
  0.8536164675928148  0.7819658275212545  1.0917780143827545
  0.9570125149498097  0.2819658275212546  0.5917780143827541
  0.3536164675928149  0.6567355034082070  1.0917780143827545
  1.1970449167390740  1.0924422034917143  0.2783877659893578
  0.1135840658035504 -0.1537408725622528  0.7783877659893578
  0.6970449167390740  0.3462591274377472  0.2783877659893578
  0.6135840658035505  0.5924422034917142  0.7783877659893578
