Sc Mo  N 
 1.0000000000000000
     5.5588820672531458    0.0000000000000000    0.0000000000000000
     0.0000000000000000    5.1613783459727074    0.0000000000000000
     0.0000000000000000    0.0000000000000000    7.5325840228771526
 Sc  Mo  N  
   4   4  12
Direct
  0.0776572456356561  0.4846753327323653  0.2709657173956970
  1.1812002398165313  0.4642424430421858  0.7709657173956971
  0.5776572456356561 -0.0357575569578143  0.2709657173956970
  0.6812002398165315  0.9846753327323655  0.7709657173956971
  1.0945270286082076 -0.0078281917289805  1.0370821777209143
  0.1643304568439799  0.9567459675035317  0.5370821777209144
  0.5945270286082075  0.4567459675035317  1.0370821777209143
  0.6643304568439801  0.4921718082710194  0.5370821777209144
  0.4489633782443390  0.1547232183508052 -0.0174372486643364
  0.8098941072078488  0.7941945574237458  0.4825627513356635
  0.9489633782443390  0.2941945574237460 -0.0174372486643364
  0.3098941072078486  0.6547232183508052  0.4825627513356635
  0.4311267664045913  0.1618437258307518  0.5681739153870687
  0.8277307190475964  0.7870740499437993  1.0681739153870689
  0.9311267664045914  0.2870740499437994  0.5681739153870687
  0.3277307190475965  0.6618437258307518  1.0681739153870689
  1.1572490263712685  1.0565199132385983  0.2759137497914709
  0.1016084590809191 -0.1076021374640472  0.7759137497914709
  0.6572490263712686  0.3923978625359527  0.2759137497914709
  0.6016084590809191  0.5565199132385982  0.7759137497914709
