Sc Mo  N 
 1.0000000000000000
     5.5588820672531458    0.0000000000000000    0.0000000000000000
     0.0000000000000000    5.1613783459727074    0.0000000000000000
     0.0000000000000000    0.0000000000000000    7.5325840228771526
 Sc  Mo  N  
   4   4  12
Direct
  0.0776572456356561  0.4846753327323653  0.2709657173956970
  1.0258857485452189  0.4948917775774551  0.7709657173956970
  0.5776572456356561 -0.0051082224225450  0.2709657173956970
  0.5258857485452189  0.9846753327323653  0.7709657173956970
  1.0168697829725513  0.0074964755386541  1.0129074872330885
  0.0866732112083237  0.9720706347711663  0.5129074872330885
  0.5168697829725513  0.4720706347711664  1.0129074872330885
  0.5866732112083237  0.5074964755386541  0.5129074872330885
  0.3713061326086827  0.1700478856184399  0.0401672004257136
  0.7322368615721925  0.8095192246913806  0.5401672004257135
  0.8713061326086827  0.3095192246913807  0.0401672004257136
  0.2322368615721924  0.6700478856184398  0.5401672004257135
  0.3534695207689350  0.1771683930983864  0.4973616184000113
  0.7500734734119401  0.8023987172114341  0.9973616184000113
  0.8534695207689349  0.3023987172114340  0.4973616184000113
  0.2500734734119401  0.6771683930983864  0.9973616184000113
  1.0378613552678504  0.9487530424792491  0.2684917011978101
  0.0656816389130247  0.0308140678305712  0.7684917011978101
  0.5378613552678504  0.5308140678305712  0.2684917011978101
  0.5656816389130247  0.4487530424792491  0.7684917011978101
