Sc Mo  N 
 1.0000000000000000
     5.5588820672531458    0.0000000000000000    0.0000000000000000
     0.0000000000000000    5.1613783459727074    0.0000000000000000
     0.0000000000000000    0.0000000000000000    7.5325840228771526
 Sc  Mo  N  
   4   4  12
Direct
  0.0776572456356561  0.4846753327323653  0.2709657173956970
  1.1294287427260938  0.4744588878872755  0.7709657173956971
  0.5776572456356561 -0.0255411121127245  0.2709657173956970
  0.6294287427260939  0.9846753327323655  0.7709657173956971
  1.0686412800629888 -0.0027199693064357  1.0290239475583056
  0.1384447082987612  0.9618541899260764  0.5290239475583057
  0.5686412800629889  0.4618541899260766  1.0290239475583056
  0.6384447082987613  0.4972800306935643  0.5290239475583057
  0.4230776296991202  0.1598314407733501  0.0017642343656803
  0.7840083586626300  0.7993027798462907  0.5017642343656802
  0.9230776296991202  0.2993027798462908  0.0017642343656803
  0.2840083586626299  0.6598314407733501  0.5017642343656802
  0.4052410178593724  0.1669519482532967  0.5445698163913829
  0.8018449705023776  0.7921822723663442  1.0445698163913830
  0.9052410178593725  0.2921822723663443  0.5445698163913829
  0.3018449705023776  0.6669519482532966  1.0445698163913830
  1.1174531360034625  1.0205976229854818  0.2734397335935839
  0.0896328523582876 -0.0614634023658411  0.7734397335935840
  0.6174531360034624  0.4385365976341590  0.2734397335935839
  0.5896328523582877  0.5205976229854818  0.7734397335935840
