Ga41 Mo8                                
   1.0000000000000000     
     6.4202133299554252   -7.0069088553026520   -0.0116565951794249
     6.4202122149899790    7.0069098792048914   -0.0116552160569656
    -1.2098740183549535   -0.0000010239021333    9.4261471189883430
   Ga   Mo
    41     8
Direct
  0.0000000000000000  0.0000000000000000  0.0000000000000000
  0.5000000000000000  0.5000000000000000  0.5000000000000000
  0.0000000000000000  0.5000000000000000  0.5000000000000000
  0.5000000000000000  0.0000000000000000  0.5000000000000000
  0.5000000000000000  0.5000000000000000  0.0000000000000000
  0.2694020650451705  0.6315489164612629  0.6093294399025453
  0.6093294399025453  0.2694020650451705  0.6315489164612629
  0.6315489164612629  0.6093294399025453  0.2694020650451705
  0.7305979349548295  0.3684510835387442  0.3906705600974476
  0.3906705600974476  0.7305979349548295  0.3684510835387442
  0.3684510835387442  0.3906705600974476  0.7305979349548295
  0.6780346305524674  0.7830856507530655  0.5397471760146786
  0.5397471760146786  0.6780346305524674  0.7830856507530655
  0.7830856507530655  0.5397471760146786  0.6780346305524674
  0.3219653694475397  0.2169143492469345  0.4602528239853214
  0.4602528239853214  0.3219653694475397  0.2169143492469345
  0.2169143492469345  0.4602528239853214  0.3219653694475397
  0.7783335367713704  0.0758479825662306  0.4507913292611363
  0.4507913292611363  0.7783335367713704  0.0758479825662306
  0.0758479825662306  0.4507913292611363  0.7783335367713704
  0.2216664632286296  0.9241520174337836  0.5492086707388637
  0.5492086707388637  0.2216664632286296  0.9241520174337836
  0.9241520174337836  0.5492086707388637  0.2216664632286296
  0.9702492005469594  0.7851695345673306  0.6002392522882261
  0.6002392522882261  0.9702492005469594  0.7851695345673306
  0.7851695345673306  0.6002392522882261  0.9702492005469594
  0.0297507994530335  0.2148304654326694  0.3997607477117739
  0.3997607477117739  0.0297507994530335  0.2148304654326694
  0.2148304654326694  0.3997607477117739  0.0297507994530335
  0.0596185711806498  0.7440371458914186  0.8767011615821119
  0.8767011615821119  0.0596185711806498  0.7440371458914186
  0.7440371458914186  0.8767011615821119  0.0596185711806498
  0.9403814288193502  0.2559628541085814  0.1232988384178952
  0.1232988384178952  0.9403814288193502  0.2559628541085814
  0.2559628541085814  0.1232988384178952  0.9403814288193502
  0.1249620500403310  0.1790245026945456  0.6797496676359174
  0.6797496676359174  0.1249620500403310  0.1790245026945456
  0.1790245026945456  0.6797496676359174  0.1249620500403310
  0.8750379499596690  0.8209754973054615  0.3202503323640826
  0.3202503323640826  0.8750379499596690  0.8209754973054615
  0.8209754973054615  0.3202503323640826  0.8750379499596690
  0.8022752251983789  0.8022752251983789  0.8022752251983789
  0.1977247748016211  0.1977247748016211  0.1977247748016211
  0.2932838503754454  0.6130647862497653  0.8871165885962782
  0.8871165885962782  0.2932838503754454  0.6130647862497653
  0.6130647862497653  0.8871165885962782  0.2932838503754454
  0.7067161496245546  0.3869352137502418  0.1128834114037218
  0.1128834114037218  0.7067161496245546  0.3869352137502418
  0.3869352137502418  0.1128834114037218  0.7067161496245546

  0.00000000E+00  0.00000000E+00  0.00000000E+00
  0.00000000E+00  0.00000000E+00  0.00000000E+00
  0.00000000E+00  0.00000000E+00  0.00000000E+00
  0.00000000E+00  0.00000000E+00  0.00000000E+00
  0.00000000E+00  0.00000000E+00  0.00000000E+00
  0.00000000E+00  0.00000000E+00  0.00000000E+00
  0.00000000E+00  0.00000000E+00  0.00000000E+00
  0.00000000E+00  0.00000000E+00  0.00000000E+00
  0.00000000E+00  0.00000000E+00  0.00000000E+00
  0.00000000E+00  0.00000000E+00  0.00000000E+00
  0.00000000E+00  0.00000000E+00  0.00000000E+00
  0.00000000E+00  0.00000000E+00  0.00000000E+00
  0.00000000E+00  0.00000000E+00  0.00000000E+00
  0.00000000E+00  0.00000000E+00  0.00000000E+00
  0.00000000E+00  0.00000000E+00  0.00000000E+00
  0.00000000E+00  0.00000000E+00  0.00000000E+00
  0.00000000E+00  0.00000000E+00  0.00000000E+00
  0.00000000E+00  0.00000000E+00  0.00000000E+00
  0.00000000E+00  0.00000000E+00  0.00000000E+00
  0.00000000E+00  0.00000000E+00  0.00000000E+00
  0.00000000E+00  0.00000000E+00  0.00000000E+00
  0.00000000E+00  0.00000000E+00  0.00000000E+00
  0.00000000E+00  0.00000000E+00  0.00000000E+00
  0.00000000E+00  0.00000000E+00  0.00000000E+00
  0.00000000E+00  0.00000000E+00  0.00000000E+00
  0.00000000E+00  0.00000000E+00  0.00000000E+00
  0.00000000E+00  0.00000000E+00  0.00000000E+00
  0.00000000E+00  0.00000000E+00  0.00000000E+00
  0.00000000E+00  0.00000000E+00  0.00000000E+00
  0.00000000E+00  0.00000000E+00  0.00000000E+00
  0.00000000E+00  0.00000000E+00  0.00000000E+00
  0.00000000E+00  0.00000000E+00  0.00000000E+00
  0.00000000E+00  0.00000000E+00  0.00000000E+00
  0.00000000E+00  0.00000000E+00  0.00000000E+00
  0.00000000E+00  0.00000000E+00  0.00000000E+00
  0.00000000E+00  0.00000000E+00  0.00000000E+00
  0.00000000E+00  0.00000000E+00  0.00000000E+00
  0.00000000E+00  0.00000000E+00  0.00000000E+00
  0.00000000E+00  0.00000000E+00  0.00000000E+00
  0.00000000E+00  0.00000000E+00  0.00000000E+00
  0.00000000E+00  0.00000000E+00  0.00000000E+00
  0.00000000E+00  0.00000000E+00  0.00000000E+00
  0.00000000E+00  0.00000000E+00  0.00000000E+00
  0.00000000E+00  0.00000000E+00  0.00000000E+00
  0.00000000E+00  0.00000000E+00  0.00000000E+00
  0.00000000E+00  0.00000000E+00  0.00000000E+00
  0.00000000E+00  0.00000000E+00  0.00000000E+00
  0.00000000E+00  0.00000000E+00  0.00000000E+00
  0.00000000E+00  0.00000000E+00  0.00000000E+00
