La Mo  N 
 1.0000000000000000
    -0.0108703861474757   -0.0014975071286151   -7.9468827211037674
    -0.0040367963182537   -5.6435787867958620    0.0000320196760317
    -5.6304897512003684    0.0001587145451875   -0.0026869753609565
 La  Mo  N  
   4   4  12
Direct
  0.5001494139323199  0.9871580888468972  0.9964585951259720
  0.5001548462642660  0.4870069539859710  0.4964615768478541
  1.0000629270576316  0.9870778022792098  0.9962101905722204
  1.0000569787195015  0.4870837468085822  0.4961999233988122
  0.2507922324127089  0.9872428152497864  0.4946620523487887
  0.2508562504461220  0.4868544004150457  0.9947213245872603
  0.7508616724516581  0.9867591977251920  0.4946175905155054
  0.7507964401751318  0.4873328283056373  0.9945557541559963
  0.4939293109134748  0.0055545874076492  0.5089144418077961
  0.4939289471033159  0.4685647358557032  0.0094687335864591
  0.9939452716516614  0.9685111375227158  0.5095076245557403
  0.9939450922970443  0.5056080045761840  0.0089586225198652
  0.2532159437722281  0.7460357847692195  0.7679561784218428
  0.2344239005052203  0.2281501276305183  0.2500344110628392
  0.7343574303855152  0.7297429722997157  0.7513393907353791
  0.7532247667817937  0.2444745426964730  0.2660873620092681
  0.2347205773673386  0.2460317098021984  0.7500182376881809
  0.2529760695876296  0.7281318310156145  0.2679492144826433
  0.7529772188197275  0.2296762224671672  0.7660863630908586
  0.7346569017160552  0.7444180569327825  0.2513295534987277
