La Mo  N 
 1.0000000000000000
    -0.0108703861474757   -0.0014975071286151   -7.9468827211037674
    -0.0040367963182537   -5.6435787867958620    0.0000320196760317
    -5.6304897512003684    0.0001587145451875   -0.0026869753609565
 La  Mo  N  
   4   4  12
Direct
  0.5001494139323199  0.9871580888468973  0.9964585951259719
  0.5001331169364818  0.4876114934296755  0.4964496499603252
  1.0004088745563851  0.9873989485499600  0.9972038087872259
  1.0004267195707754  0.4873811149618426  0.4972346103074509
  0.2480820784132546  0.9878711446874184  0.5019371471240884
  0.2481485249328941  0.4871122983612682  1.0020015476046349
  0.7481515184522038  0.9873875271628240  0.5018926852908050
  0.7480887146619040  0.4875907262518598  1.0018359771733707
  0.5188097229888555 -0.0680314068353590  0.4590910550804986
  0.5188108144193323  0.5429381478204796 -0.0425718202554890
  1.0187618407742962  1.0430989428194410  0.4573115068366673
  1.0187623788381475  0.4318083416590359 -0.0410414870557081
  0.2409321783934644  0.7136474852254230  0.6857034780635088
  0.2974588944530296  0.2609962831576382  0.2331211879702899
  0.7973924243333244  0.7625891278268360  0.7344261676428298
  0.7409410014030300  0.2120862431526764  0.1838346616509341
  0.2965632749298309  0.2137645317198252  0.7331570358182513
  0.2416671485021950  0.7611480794376390  0.1857124398395266
  0.7416682977342930  0.2626924708891920  0.6838495884477419
  0.7964995992785475  0.7121508788504093  0.2344683516287983
