La Mo  N 
 1.0000000000000000
    -0.0108703861474757   -0.0014975071286151   -7.9468827211037674
    -0.0040367963182537   -5.6435787867958620    0.0000320196760317
    -5.6304897512003684    0.0001587145451875   -0.0026869753609565
 La  Mo  N  
   4   4  12
Direct
  0.5001494139323199  0.9871580888468973  0.9964585951259719
  0.5001385492684278  0.4874603585687494  0.4964526316822073
  1.0003223876816967  0.9873186619822726  0.9969554042334745
  1.0003342843579570  0.4873067729235275  0.4969759385802913
  0.2487596169131182  0.9877140623280105  0.5001183734302636
  0.2488254563112011  0.4870478238747126  1.0001814918502911
  0.7488290569520675  0.9872304448034158  0.5000739115969801
  0.7487656460402109  0.4875262517653042  1.0000159214190272
  0.5125896199700105 -0.0496349082746071  0.4715469017623228
  0.5125903475903283  0.5243447948292858 -0.0295616817950021
  1.0125576984936375  1.0244519914952599  0.4703605362664354
  1.0125580572028718  0.4502582573883227 -0.0285414596618149
  0.2440031197381553  0.7217445601113720  0.7062666531530922
  0.2817001459660774  0.2527847442758583  0.2373494937434272
  0.7816336758463722  0.7543775889450560  0.7386544734159669
  0.7440119427477209  0.2201833180386255  0.2043978367405174
  0.2811026005392079  0.2218313262404185  0.7373723362857336
  0.2444943787735536  0.7528940173321329  0.2062716335003056
  0.7444955280056516  0.2544384087836858  0.7044087821085210
  0.7810389248879247  0.7202176733710026  0.2386836520962806
