La Mo  N 
 1.0000000000000000
    -0.0108703861474757   -0.0014975071286151   -7.9468827211037674
    -0.0040367963182537   -5.6435787867958620    0.0000320196760317
    -5.6304897512003684    0.0001587145451875   -0.0026869753609565
 La  Mo  N  
   4   4  12
Direct
  0.5001494139323199  0.9871580888468970  0.9964585951259720
  0.5001602785962120  0.4868558191250448  0.4964645585697363
  0.9999764401829434  0.9869975157115223  0.9959617860184692
  0.9999645435066830  0.4870094047702671  0.4959412516716524
  0.2514697709125725  0.9870857328903785  0.4928432786549639
  0.2515331818244290  0.4867899259284901  0.9929012688329164
  0.7515392109515217  0.9866021153657841  0.4927988168216804
  0.7514733715534387  0.4872683538190817  0.9927356984016527
  0.4877092078946295  0.0239510859684013  0.5213702884896206
  0.4877084802743119  0.4499713828645092  0.0224788720469461
  0.9877411293710027  0.9498641861985345  0.5225566539855084
  0.9877407706617685  0.5240579203054713  0.0214586499137585
  0.2562868851169190  0.7541328596551687  0.7885193535114264
  0.2186651520182679  0.2199385887487383  0.2542627168359765
  0.7185986818985627  0.7215314334179357  0.7555676965085164
  0.7562957081264846  0.2525716175824222  0.2866505370988517
  0.2192599029767154  0.2540985043227918  0.7542335381556633
  0.2558032998589883  0.7198777689101081  0.2885084081434225
  0.7558044490910860  0.2214221603616610  0.7866455567516378
  0.7191962273254322  0.7524848514533755  0.2555448539662101
