La Mo  N 
 1.0000000000000000
    -0.0108703861474757   -0.0014975071286151   -7.9468827211037674
    -0.0040367963182537   -5.6435787867958620    0.0000320196760317
    -5.6304897512003684    0.0001587145451875   -0.0026869753609565
 La  Mo  N  
   4   4  12
Direct
  0.5001494139323199  0.9871580888468972  0.9964585951259720
  0.5001494139323199  0.4871580888468972  0.4964585951259718
  1.0001494139323199  0.9871580888468973  0.9964585951259719
  1.0001494139323199  0.4871580888468973  0.4964585951259718
  0.2501146939128454  0.9873998976091943  0.4964808260426137
  0.2501793190678150  0.4869188749016013  0.9965413803416039
  0.7501841339517944  0.9869162800846000  0.4964363642093303
  0.7501195087968249  0.4873973027921930  0.9963758099103399
  0.5001494139323199 -0.0128419111531028  0.4964585951259718
  0.5001494139323200  0.4871580888468973 -0.0035414048740279
  1.0001494139323199  0.9871580888468970  0.4964585951259720
  1.0001494139323199  0.4871580888468972 -0.0035414048740281
  0.2501450024275371  0.7379387098832704  0.7473930033322596
  0.2501826489921725  0.2363616665122983  0.2458061052897019
  0.7501161788724674  0.7379545111814958  0.7471110849622417
  0.7501538254371027  0.2363774678105239  0.2455241869196848
  0.2501812517579616  0.2379649152816052  0.7458029372206983
  0.2501488393162710  0.7363858931211205  0.2473900208218642
  0.7501499885483688  0.2379302845726733  0.7455271694300795
  0.7501175761066784  0.7363512624121891  0.2471142530312454
