La Mo  N 
 1.0000000000000000
    -0.0108703861474757   -0.0014975071286151   -7.9468827211037674
    -0.0040367963182537   -5.6435787867958620    0.0000320196760317
    -5.6304897512003684    0.0001587145451875   -0.0026869753609565
 La  Mo  N  
   4   4  12
Direct
  0.5001494139323199  0.9871580888468970  0.9964585951259720
  0.5001657109281581  0.4867046842641188  0.4964675402916185
  0.9998899533082550  0.9869172291438345  0.9957133814647178
  0.9998721082938645  0.4869350627319520  0.4956825799444928
  0.2521473094124361  0.9869286505309703  0.4910245049611389
  0.2522101132027359  0.4867254514419345  0.9910812130785729
  0.7522167494513853  0.9864450330063760  0.4909800431278555
  0.7521503029317458  0.4872038793325261  0.9909156426473088
  0.4814891048757843  0.0423475845291534  0.5338261351714451
  0.4814880134453077  0.4313780298733150  0.0354890105074332
  0.9815369870903440  0.9312172348743533  0.5356056834152767
  0.9815364490264926  0.5425078360347584  0.0339586773076519
  0.2593578264616099  0.7622299345411178  0.8090825286010100
  0.2029064035313155  0.2117270498669583  0.2584910226091139
  0.7028399334116103  0.7133198945361556  0.7597960022816537
  0.7593666494711755  0.2606686924683714  0.3072137121884354
  0.2037992285860923  0.2621652988433851  0.7584488386231456
  0.2586305301303470  0.7116237068046021  0.3090676018042017
  0.7586316793624449  0.2131680982561548  0.8072047504124171
  0.7037355529348090  0.7605516459739690  0.2597601544336925
