La Mo  N 
 1.0000000000000000
    -0.0108703861474757   -0.0014975071286151   -7.9468827211037674
    -0.0040367963182537   -5.6435787867958620    0.0000320196760317
    -5.6304897512003684    0.0001587145451875   -0.0026869753609565
 La  Mo  N  
   4   4  12
Direct
  0.5001494139323199  0.9871580888468972  0.9964585951259719
  0.5001439816003738  0.4873092237078232  0.4964556134040896
  1.0002359008070083  0.9872383754145848  0.9967069996797233
  1.0002418491451386  0.4872324308852123  0.4967172668531315
  0.2494371554129818  0.9875569799686024  0.4982995997364386
  0.2495023876895080  0.4869833493881570  0.9983614360959475
  0.7495065954519310  0.9870733624440081  0.4982551379031552
  0.7494425774185178  0.4874617772787486  0.9981958656646834
  0.5063695169511652 -0.0312384097138550  0.4840027484441473
  0.5063698807613242  0.5057514418380914 -0.0165515433345151
  1.0063535562129788  1.0058050401710787  0.4834095656962036
  1.0063537355675960  0.4687081731176099 -0.0160414322679215
  0.2470740610828462  0.7298416349973212  0.7268298282426758
  0.2659413974791250  0.2445732053940783  0.2415777995165646
  0.7658749273594199  0.7461660500632757  0.7428827791891042
  0.7470828840924119  0.2282803929245746  0.2249610118301010
  0.2656419261485848  0.2298981207610117  0.7415876367532162
  0.2473216090449123  0.7446399552266266  0.2268308271610849
  0.7473227582770102  0.2461843466781796  0.7249679757693002
  0.7655782504973014  0.7282844678915960  0.2428989525637630
