Y2                                      
   1.0000000000000000     
     1.8215408591791307   -3.1549998534395098   -0.0000000000000000
     1.8215408591791307    3.1549998534395098    0.0000000000000000
    -0.0000000000000000    0.0000000000000000    5.8745636531539098
   Y 
     2
Direct
  0.3333330000000032  0.6666669999999968  0.2500000000000000
  0.6666669999999968  0.3333330000000032  0.7500000000000000

  0.00000000E+00  0.00000000E+00  0.00000000E+00
  0.00000000E+00  0.00000000E+00  0.00000000E+00
