Tl2                                     
   1.0000000000000000     
     1.7642477149749134   -3.0557662825960112   -0.0000000000000000
     1.7642477149749134    3.0557662825960112    0.0000000000000000
     0.0000000000000000   -0.0000000000000000    5.5743389453809016
   Tl
     2
Direct
  0.3333330000000032  0.6666669999999968  0.7500000000000000
  0.6666669999999968  0.3333330000000032  0.2500000000000000

  0.00000000E+00  0.00000000E+00  0.00000000E+00
  0.00000000E+00  0.00000000E+00  0.00000000E+00
