Ga4                                     
   1.0000000000000000     
     2.3133214705563616   -3.8649132718874104   -0.0000000000000000
     2.3133214705563616    3.8649132718874104   -0.0000000000000000
     0.0000000000000000    0.0000000000000000    4.5332479376731323
   Ga
     4
Direct
  0.3354988329208908  0.0133352856744580  0.2500000000000000
  0.9866647143255420  0.6645011670791092  0.7500000000000000
  0.6645011670791092  0.9866647143255420  0.7500000000000000
  0.0133352856744580  0.3354988329208908  0.2500000000000000

  0.00000000E+00  0.00000000E+00  0.00000000E+00
  0.00000000E+00  0.00000000E+00  0.00000000E+00
  0.00000000E+00  0.00000000E+00  0.00000000E+00
  0.00000000E+00  0.00000000E+00  0.00000000E+00
