Ti2                                     
   1.0000000000000000     
     1.4624584065271495   -2.5330512728021182    0.0000000000000000
     1.4624584065271495    2.5330512728021182   -0.0000000000000000
     0.0000000000000000   -0.0000000000000000    4.6181981606838409
   Ti
     2
Direct
  0.3333330000000032  0.6666669999999968  0.2500000000000000
  0.6666669999999968  0.3333330000000032  0.7500000000000000

  0.00000000E+00  0.00000000E+00  0.00000000E+00
  0.00000000E+00  0.00000000E+00  0.00000000E+00
