W4 N6                                   
   1.0000000000000000     
     4.2812756811929118    2.4882158634693265   -0.0008225929353690
    -4.2812756811929118    2.4882158634693265   -0.0008225929353689
     0.0000000000000000    1.6759479846403089    5.0538300045313029
   W    N 
     4     6
Direct
  0.3305852527551636  0.9939184985718228  0.0089283150861874
  0.6772228766349571  0.6772228766349571  0.9844254902975038
  0.9939184985718228  0.3305852527551636  0.0089283150861874
  0.4913945586165980  0.4913945586165980  0.5225466416653930
  0.0936980509385279  0.0936980509385279  0.7499046891833032
  0.4119182706740503  0.7451074691085395  0.7472036645553004
  0.7451074691085395  0.4119182706740503  0.7472036645553004
  0.2647784505007778  0.5805198631371979  0.2502001901442483
  0.9035187090623680  0.9035187090623680  0.2524578392823358
  0.5805198631371979  0.2647784505007778  0.2502001901442483

  0.00000000E+00  0.00000000E+00  0.00000000E+00
  0.00000000E+00  0.00000000E+00  0.00000000E+00
  0.00000000E+00  0.00000000E+00  0.00000000E+00
  0.00000000E+00  0.00000000E+00  0.00000000E+00
  0.00000000E+00  0.00000000E+00  0.00000000E+00
  0.00000000E+00  0.00000000E+00  0.00000000E+00
  0.00000000E+00  0.00000000E+00  0.00000000E+00
  0.00000000E+00  0.00000000E+00  0.00000000E+00
  0.00000000E+00  0.00000000E+00  0.00000000E+00
  0.00000000E+00  0.00000000E+00  0.00000000E+00
