V1                                      
   1.0000000000000000     
    -1.4908456299224910    1.4908456299224910    1.4908456299224910
     1.4908456299224910   -1.4908456299224910    1.4908456299224910
     1.4908456299224910    1.4908456299224910   -1.4908456299224910
   V 
     1
Direct
  0.0000000000000000  0.0000000000000000  0.0000000000000000

  0.00000000E+00  0.00000000E+00  0.00000000E+00
