La2 N2                                  
   1.0000000000000000     
     2.0694069160821886   -3.5843180101403442    0.0000000000000000
     2.0694069160821886    3.5843180101403442   -0.0000000000000000
    -0.0000000000000000   -0.0000000000000000    5.8491003184921038
   La   N 
     2     2
Direct
  0.3333330000000032  0.6666669999999968  0.9954440136273490
  0.6666669999999968  0.3333330000000032  0.4954440136273490
  0.3333330000000032  0.6666669999999968  0.4145559863726476
  0.6666669999999968  0.3333330000000032  0.9145559863726476

  0.00000000E+00  0.00000000E+00  0.00000000E+00
  0.00000000E+00  0.00000000E+00  0.00000000E+00
  0.00000000E+00  0.00000000E+00  0.00000000E+00
  0.00000000E+00  0.00000000E+00  0.00000000E+00
