Sb2                                     
   1.0000000000000000     
     4.0144874020186654   -2.1476314643167580    0.0125660343218064
     4.0144874020186698    2.1476314643167580    0.0125660343218064
     2.8545055049014949   -0.0000000000000002    3.5468843745191463
   Sb
     2
Direct
  0.7316456100281528  0.7316456100281528  0.7316456100281528
  0.2683543899718472  0.2683543899718472  0.2683543899718472

  0.00000000E+00  0.00000000E+00  0.00000000E+00
  0.00000000E+00  0.00000000E+00  0.00000000E+00
