 Y Mo  N 
 1.0000000000000000
     7.5900048390534893    0.0000000000000000    0.0000000000000000
     0.0000000000000000    5.6753661682869874    0.0000000000000000
     0.0000000000000000    0.0000000000000000    5.4921209112080787
 Y   Mo  N  
   4   4  12
Direct
  0.0000000000000000  0.8127992772216999  0.5007255601891671
  0.5000000000000000  0.3127992772216999  0.0007255601891670
  0.0000000000000000  0.3127992772216999  0.0007255601891671
  0.5000000000000000  0.8127992772216998  0.5007255601891671
  0.7582912116352887  0.8127992772216999  0.0007255601891670
  0.7417087883647113  0.3127992772216999  0.5007255601891671
  0.2582912116352887  0.3127992772216999  0.5007255601891671
  0.2417087883647113  0.8127992772216999  0.0007255601891670
  0.0000000000000000  0.8127992772216999  1.0007255601891671
  0.5000000000000000  0.3127992772217000  0.5007255601891671
  0.0000000000000000  0.3127992772216999  0.5007255601891671
  0.5000000000000000  0.8127992772216999  0.0007255601891671
  0.7493105052283334  0.6163996405539542  0.3040182398459415
  0.7506894947716667  0.5091989138894456  0.8040182398459413
  0.2493105052283333  0.5091989138894456  0.8040182398459413
  0.2506894947716667  0.6163996405539542  0.3040182398459415
  0.7493105052283334  1.0091989138894455  0.6974328805323927
  0.7506894947716667  0.1163996405539543  0.1974328805323929
  0.2493105052283333  0.1163996405539543  0.1974328805323929
  0.2506894947716667  1.0091989138894455  0.6974328805323927
