 Y Mo  N 
 1.0000000000000000
     7.5900048390534893    0.0000000000000000    0.0000000000000000
     0.0000000000000000    5.6753661682869874    0.0000000000000000
     0.0000000000000000    0.0000000000000000    5.4921209112080787
 Y   Mo  N  
   4   4  12
Direct
  0.0000000000000000  0.8127992772216999  0.5007255601891671
  0.5000000000000000  0.2290669075927668  0.0007255601891671
  0.0000000000000000  0.3159840460870906  0.0062852921447387
  0.5000000000000000  0.7258821387273761  0.5062852921447387
  0.7582912116352887  0.7789502977490675  0.0241159914171523
  0.7417087883647113  0.2629158870653991  0.5241159914171523
  0.2582912116352887  0.2629158870653991  0.5241159914171523
  0.2417087883647113  0.7789502977490675  0.0241159914171523
  0.0000000000000000  0.7473004000234625  0.9290870645925225
  0.5000000000000000  0.2945657847910043  0.4290870645925225
  0.0000000000000000  0.2537160608041897  0.5528369159995350
  0.5000000000000000  0.7881501240102770  0.0528369159995349
  0.7822567340831045  0.5780075180471359  0.2946192758743477
  0.7177432659168955  0.4638586667673307  0.7946192758743476
  0.2822567340831045  0.4638586667673307  0.7946192758743476
  0.2177432659168956  0.5780075180471359  0.2946192758743477
  0.7163642763735623  0.9708067913826273  0.6880339165607989
  0.7836357236264379  0.0710593934318395  0.1880339165607990
  0.2163642763735621  0.0710593934318395  0.1880339165607990
  0.2836357236264379  0.9708067913826273  0.6880339165607989
