 Y Mo  N 
 1.0000000000000000
     7.5900048390534893    0.0000000000000000    0.0000000000000000
     0.0000000000000000    5.6753661682869874    0.0000000000000000
     0.0000000000000000    0.0000000000000000    5.4921209112080787
 Y   Mo  N  
   4   4  12
Direct
  0.0000000000000000  0.8127992772216999  0.5007255601891671
  0.5000000000000000  0.4383978316650997  0.0007255601891670
  0.0000000000000000  0.3080221239236139 -0.0076140377441902
  0.5000000000000000  0.9431749849631853  0.4923859622558098
  0.7582912116352887  0.8635727464306484 -0.0343600866528108
  0.7417087883647113  0.3876243624561511  0.4656399133471893
  0.2582912116352887  0.3876243624561511  0.4656399133471893
  0.2417087883647113  0.8635727464306484 -0.0343600866528108
  0.0000000000000000  0.9110475930190559  1.1081833035841342
  0.5000000000000000  0.3401495158677437  0.6081833035841341
  0.0000000000000000  0.4014241018479652  0.4225585264736154
  0.5000000000000000  0.8497730070388344 -0.0774414735263847
  0.6998911619461766  0.6739878243141818  0.3181166858033322
  0.8001088380538235  0.5772092845726180  0.8181166858033322
  0.1998911619461765  0.5772092845726180  0.8181166858033322
  0.3001088380538234  0.6739878243141818  0.3181166858033322
  0.7987298485104901  1.0667870976496729  0.7115313264897835
  0.7012701514895099  0.1844100112371266  0.2115313264897836
  0.2987298485104901  0.1844100112371266  0.2115313264897836
  0.2012701514895099  1.0667870976496729  0.7115313264897835
