 Y Mo  N 
 1.0000000000000000
     7.5900048390534893    0.0000000000000000    0.0000000000000000
     0.0000000000000000    5.6753661682869874    0.0000000000000000
     0.0000000000000000    0.0000000000000000    5.4921209112080787
 Y   Mo  N  
   4   4  12
Direct
  0.0000000000000000  0.8127992772216999  0.5007255601891671
  0.5000000000000000  0.2709330924072335  0.0007255601891671
  0.0000000000000000  0.3143916616543952  0.0035054261669529
  0.5000000000000000  0.7693407079745381  0.5035054261669529
  0.7582912116352887  0.7958747874853838  0.0124207758031596
  0.7417087883647113  0.2878575821435496  0.5124207758031597
  0.2582912116352887  0.2878575821435496  0.5124207758031597
  0.2417087883647113  0.7958747874853838  0.0124207758031596
  0.0000000000000000  0.7800498386225814  0.9649063123908449
  0.5000000000000000  0.3036825310063522  0.4649063123908449
  0.0000000000000000  0.2832576690129449  0.5267812380943510
  0.5000000000000000  0.8004747006159885  0.0267812380943509
  0.7657836196557188  0.5972035793005452  0.2993187578601446
  0.7342163803442812  0.4865287903283883  0.7993187578601444
  0.2657836196557188  0.4865287903283883  0.7993187578601444
  0.2342163803442812  0.5972035793005452  0.2993187578601446
  0.7328373908009479  0.9900028526360364  0.6927333985465959
  0.7671626091990522  0.0937295169928969  0.1927333985465960
  0.2328373908009478  0.0937295169928969  0.1927333985465960
  0.2671626091990522  0.9900028526360364  0.6927333985465959
