 Y Mo  N 
 1.0000000000000000
     7.5900048390534893    0.0000000000000000    0.0000000000000000
     0.0000000000000000    5.6753661682869874    0.0000000000000000
     0.0000000000000000    0.0000000000000000    5.4921209112080787
 Y   Mo  N  
   4   4  12
Direct
  0.0000000000000000  0.8127992772216999  0.5007255601891671
  0.5000000000000000  0.3546654620361668  0.0007255601891670
  0.0000000000000000  0.3112068927890046 -0.0020543057886187
  0.5000000000000000  0.8562578464688620  0.4979456942113813
  0.7582912116352887  0.8297237669580161 -0.0109696554248257
  0.7417087883647113  0.3377409722998505  0.4890303445751744
  0.2582912116352887  0.3377409722998505  0.4890303445751744
  0.2417087883647113  0.8297237669580161 -0.0109696554248257
  0.0000000000000000  0.8455487158208188  1.0365448079874897
  0.5000000000000000  0.3219160234370480  0.5365448079874897
  0.0000000000000000  0.3423408854304552  0.4746698822839830
  0.5000000000000000  0.8251238538274114 -0.0253301177160170
  0.7328373908009477  0.6355957018073636  0.3087177218317385
  0.7671626091990524  0.5318690374505033  0.8087177218317384
  0.2328373908009476  0.5318690374505033  0.8087177218317384
  0.2671626091990524  0.6355957018073636  0.3087177218317385
  0.7657836196557191  1.0283949751428549  0.7021323625181897
  0.7342163803442809  0.1390697641150119  0.2021323625181898
  0.2657836196557191  0.1390697641150119  0.2021323625181898
  0.2342163803442810  1.0283949751428549  0.7021323625181897
