 Y Mo  N 
 1.0000000000000000
     7.5900048390534893    0.0000000000000000    0.0000000000000000
     0.0000000000000000    5.6753661682869874    0.0000000000000000
     0.0000000000000000    0.0000000000000000    5.4921209112080787
 Y   Mo  N  
   4   4  12
Direct
  0.0000000000000000  0.8127992772216999  0.5007255601891671
  0.5000000000000000  0.3965316468506335  0.0007255601891670
  0.0000000000000000  0.3096145083563093 -0.0048341717664045
  0.5000000000000000  0.8997164157160239  0.4951658282335955
  0.7582912116352887  0.8466482566943324 -0.0226648710388183
  0.7417087883647113  0.3626826673780010  0.4773351289611818
  0.2582912116352887  0.3626826673780010  0.4773351289611818
  0.2417087883647113  0.8466482566943324 -0.0226648710388183
  0.0000000000000000  0.8782981544199376  1.0723640557858123
  0.5000000000000000  0.3310327696523959  0.5723640557858122
  0.0000000000000000  0.3718824936392104  0.4486142043787990
  0.5000000000000000  0.8374484304331230 -0.0513857956212010
  0.7163642763735620  0.6547917630607728  0.3134172038175354
  0.7836357236264381  0.5545391610115608  0.8134172038175352
  0.2163642763735620  0.5545391610115608  0.8134172038175352
  0.2836357236264380  0.6547917630607728  0.3134172038175354
  0.7822567340831047  1.0475910363962639  0.7068318445039866
  0.7177432659168953  0.1617398876760694  0.2068318445039867
  0.2822567340831048  0.1617398876760694  0.2068318445039867
  0.2177432659168953  1.0475910363962639  0.7068318445039866
