 Y Mo  N                                
   1.0000000000000000     
     7.5900048390534893    0.0000000000000000    0.0000000000000000
     0.0000000000000000    5.6753661682869874    0.0000000000000000
     0.0000000000000000    0.0000000000000000    5.4921209112080787
   Y    Mo   N 
     4     4    12
Direct
  0.0000000000000000  0.8127992772216999  0.5007255601891671
  0.5000000000000000  0.1872007227783001  0.0007255601891671
  0.0000000000000000  0.3175764305197859  0.0090651581225245
  0.5000000000000000  0.6824235694802141  0.5090651581225245
  0.7582912116352887  0.7620258080127513  0.0358112070311449
  0.7417087883647113  0.2379741919872487  0.5358112070311449
  0.2582912116352887  0.2379741919872487  0.5358112070311449
  0.2417087883647113  0.7620258080127513  0.0358112070311449
  0.0000000000000000  0.7145509614243437  0.8932678167942001
  0.5000000000000000  0.2854490385756563  0.3932678167942001
  0.0000000000000000  0.2241744525954346  0.5788925939047189
  0.5000000000000000  0.7758255474045654  0.0788925939047189
  0.7987298485104901  0.5588114567937268  0.2899197938885507
  0.7012701514895099  0.4411885432062732  0.7899197938885507
  0.2987298485104901  0.4411885432062732  0.7899197938885507
  0.2012701514895099  0.5588114567937268  0.2899197938885507
  0.6998911619461765  0.9516107301292180  0.6833344345750021
  0.8001088380538235  0.0483892698707820  0.1833344345750021
  0.1998911619461765  0.0483892698707820  0.1833344345750021
  0.3001088380538235  0.9516107301292180  0.6833344345750021

  0.00000000E+00  0.00000000E+00  0.00000000E+00
  0.00000000E+00  0.00000000E+00  0.00000000E+00
  0.00000000E+00  0.00000000E+00  0.00000000E+00
  0.00000000E+00  0.00000000E+00  0.00000000E+00
  0.00000000E+00  0.00000000E+00  0.00000000E+00
  0.00000000E+00  0.00000000E+00  0.00000000E+00
  0.00000000E+00  0.00000000E+00  0.00000000E+00
  0.00000000E+00  0.00000000E+00  0.00000000E+00
  0.00000000E+00  0.00000000E+00  0.00000000E+00
  0.00000000E+00  0.00000000E+00  0.00000000E+00
  0.00000000E+00  0.00000000E+00  0.00000000E+00
  0.00000000E+00  0.00000000E+00  0.00000000E+00
  0.00000000E+00  0.00000000E+00  0.00000000E+00
  0.00000000E+00  0.00000000E+00  0.00000000E+00
  0.00000000E+00  0.00000000E+00  0.00000000E+00
  0.00000000E+00  0.00000000E+00  0.00000000E+00
  0.00000000E+00  0.00000000E+00  0.00000000E+00
  0.00000000E+00  0.00000000E+00  0.00000000E+00
  0.00000000E+00  0.00000000E+00  0.00000000E+00
  0.00000000E+00  0.00000000E+00  0.00000000E+00
