Ta6 N10                                 
   1.0000000000000000     
     1.9345136232228199   -5.1205855479559581    0.0000000000000000
     1.9345136232228199    5.1205855479559581   -0.0000000000000000
     0.0000000000000000    0.0000000000000000   10.2708688699613369
   Ta   N 
     6    10
Direct
  0.1970350363863389  0.8029649636136611  0.7500000000000000
  0.8665229234843963  0.1334770765156037  0.9403614265693463
  0.1334770765156037  0.8665229234843963  0.0596385734306537
  0.1334770765156037  0.8665229234843963  0.4403614265693463
  0.8029649636136611  0.1970350363863389  0.2500000000000000
  0.8665229234843963  0.1334770765156037  0.5596385734306537
  0.0469430589929729  0.9530569410070342  0.8813166089055358
  0.6924964282700543  0.3075035717299457  0.0741043699851289
  0.3075035717299457  0.6924964282700543  0.9258956300148711
  0.6924964282700543  0.3075035717299457  0.4258956300148711
  0.2367762210088742  0.7632237789911258  0.2500000000000000
  0.3075035717299457  0.6924964282700543  0.5741043699851289
  0.0469430589929729  0.9530569410070342  0.6186833910944642
  0.9530569410070342  0.0469430589929729  0.3813166089055358
  0.7632237789911258  0.2367762210088742  0.7500000000000000
  0.9530569410070342  0.0469430589929729  0.1186833910944642

  0.00000000E+00  0.00000000E+00  0.00000000E+00
  0.00000000E+00  0.00000000E+00  0.00000000E+00
  0.00000000E+00  0.00000000E+00  0.00000000E+00
  0.00000000E+00  0.00000000E+00  0.00000000E+00
  0.00000000E+00  0.00000000E+00  0.00000000E+00
  0.00000000E+00  0.00000000E+00  0.00000000E+00
  0.00000000E+00  0.00000000E+00  0.00000000E+00
  0.00000000E+00  0.00000000E+00  0.00000000E+00
  0.00000000E+00  0.00000000E+00  0.00000000E+00
  0.00000000E+00  0.00000000E+00  0.00000000E+00
  0.00000000E+00  0.00000000E+00  0.00000000E+00
  0.00000000E+00  0.00000000E+00  0.00000000E+00
  0.00000000E+00  0.00000000E+00  0.00000000E+00
  0.00000000E+00  0.00000000E+00  0.00000000E+00
  0.00000000E+00  0.00000000E+00  0.00000000E+00
  0.00000000E+00  0.00000000E+00  0.00000000E+00
