Ga1 N1                                  
   1.0000000000000000     
     0.0000000000000000    2.2478680000000000    2.2478680000000000
     2.2478680000000000    0.0000000000000000    2.2478680000000000
     2.2478680000000000    2.2478680000000000   -0.0000000000000000
   Ga   N 
     1     1
Direct
  0.0000000000000000  0.0000000000000000  0.0000000000000000
  0.2500000000000000  0.2500000000000000  0.2500000000000000

  0.00000000E+00  0.00000000E+00  0.00000000E+00
  0.00000000E+00  0.00000000E+00  0.00000000E+00
