Ta3 N3                                  
   1.0000000000000000     
     2.5924671426159596   -4.4902843069402714   -0.0000000000000000
     2.5924671426159596    4.4902843069402714    0.0000000000000000
    -0.0000000000000000   -0.0000000000000000    2.8977583565753946
   Ta   N 
     3     3
Direct
  0.0000000000000000  0.0000000000000000  0.0000000000000000
  0.3333330000000032  0.6666669999999968  0.5000000000000000
  0.6666669999999968  0.3333330000000032  0.5000000000000000
  0.3928836408113483  0.0000000000000000  0.0000000000000000
  0.6071163591886517  0.6071163591886517  0.0000000000000000
  0.0000000000000000  0.3928836408113483  0.0000000000000000

  0.00000000E+00  0.00000000E+00  0.00000000E+00
  0.00000000E+00  0.00000000E+00  0.00000000E+00
  0.00000000E+00  0.00000000E+00  0.00000000E+00
  0.00000000E+00  0.00000000E+00  0.00000000E+00
  0.00000000E+00  0.00000000E+00  0.00000000E+00
  0.00000000E+00  0.00000000E+00  0.00000000E+00
