 Y  W  N 
 1.0000000000000000
     7.7406297560631474    0.0000000000000000    0.0000000000000000
     0.0000000000000000    5.6296892198264148    0.0000000000000000
     0.0000000000000000    0.0000000000000000    5.4446235223565109
 Y   W   N  
   4   4  12
Direct
  0.0000000000000000  0.8064393091694768  0.0080170413808958
  0.4999999999999999  0.3816917213954463  0.5080170413808958
  0.0000000000000000  0.3034790673053371  0.5213956740531008
  0.4999999999999999  0.8846519632595861  1.0213956740531005
  0.7535904283253672  0.8403230174966345  0.5232708412945898
  0.7464095716746327  0.3478080130682885  1.0232708412945899
  0.2535904283253673  0.3478080130682885  1.0232708412945899
  0.2464095716746330  0.8403230174966345  0.5232708412945898
  0.0000000000000000  0.8622494956065577  0.4464254481360774
  0.4999999999999999  0.3258815349583650 -0.0535745518639225
  0.0000000000000000  0.3608787007857807  1.0720061738296354
  0.4999999999999999  0.8272523297791425  0.5720061738296355
  0.7838584611609357  0.5444544848811682  0.7102514573900743
  0.7161415388390642  0.6436765456837548  0.2102514573900744
  0.2838584611609357  0.6436765456837548  0.2102514573900744
  0.2161415388390643  0.5444544848811682  0.7102514573900743
  0.7176271459944450  0.1431094197798509  0.3095278774562781
  0.7823728540055549  1.0450216107850721  0.8095278774562783
  0.2176271459944451  1.0450216107850721  0.8095278774562783
  0.2823728540055550  0.1431094197798509  0.3095278774562781
