 Y  W  N 
 1.0000000000000000
     7.7406297560631474    0.0000000000000000    0.0000000000000000
     0.0000000000000000    5.6296892198264148    0.0000000000000000
     0.0000000000000000    0.0000000000000000    5.4446235223565109
 Y   W   N  
   4   4  12
Direct
  0.0000000000000000  0.8064393091694768  0.0080170413808958
  0.4999999999999999  0.3064393091694768  0.5080170413808958
  0.0000000000000000  0.3064393091694769  0.5080170413808958
  0.4999999999999999  0.8064393091694768  1.0080170413808955
  0.7535904283253672  0.8064393091694768  0.5080170413808958
  0.7464095716746327  0.3064393091694768  1.0080170413808958
  0.2535904283253673  0.3064393091694768  1.0080170413808958
  0.2464095716746329  0.8064393091694768  0.5080170413808958
  0.0000000000000000  0.8064393091694768  0.5080170413808958
  0.4999999999999999  0.3064393091694766  0.0080170413808958
  0.0000000000000000  0.3064393091694768  1.0080170413808958
  0.4999999999999999  0.8064393091694768  0.5080170413808958
  0.7507428035776903  0.5071118417201355  0.7083788313477939
  0.7492571964223095  0.6057667766188182  0.2083788313477939
  0.2507428035776904  0.6057667766188182  0.2083788313477939
  0.2492571964223096  0.5071118417201355  0.7083788313477939
  0.7507428035776903  0.1057667766188181  0.3076552514139976
  0.7492571964223095  1.0071118417201355  0.8076552514139975
  0.2507428035776905  1.0071118417201355  0.8076552514139975
  0.2492571964223096  0.1057667766188181  0.3076552514139976
