 Y  W  N 
 1.0000000000000000
     7.7406297560631474    0.0000000000000000    0.0000000000000000
     0.0000000000000000    5.6296892198264148    0.0000000000000000
     0.0000000000000000    0.0000000000000000    5.4446235223565109
 Y   W   N  
   4   4  12
Direct
  0.0000000000000000  0.8064393091694768  0.0080170413808958
  0.4999999999999999  0.1935606908305232  0.5080170413808958
  0.0000000000000000  0.3108796719656866  0.4879490923725882
  0.4999999999999999  0.6891203280343134  0.9879490923725883
  0.7535904283253670  0.7556137466787404  0.4851363415103549
  0.7464095716746327  0.2443862533212595  0.9851363415103549
  0.2535904283253672  0.2443862533212595  0.9851363415103549
  0.2464095716746328  0.7556137466787404  0.4851363415103549
  0.0000000000000000  0.7227240295138557  0.6004044312481227
  0.4999999999999999  0.2772759704861443  0.1004044312481227
  0.0000000000000000  0.2247802217450214  0.9120333427077867
  0.4999999999999999  0.7752197782549786  0.4120333427077867
  0.7010693172028225  0.4510978769785865  0.7055698922843732
  0.7989306827971773  0.5489021230214135  0.2055698922843732
  0.2010693172028226  0.5489021230214135  0.2055698922843732
  0.2989306827971773  0.4510978769785865  0.7055698922843732
  0.8004162899525581  0.0497528118772692  0.3048463123505769
  0.6995837100474418  0.9502471881227308  0.8048463123505768
  0.3004162899525582  0.9502471881227308  0.8048463123505768
  0.1995837100474418  0.0497528118772692  0.3048463123505769
