 Y  W  N 
 1.0000000000000000
     7.7406297560631474    0.0000000000000000    0.0000000000000000
     0.0000000000000000    5.6296892198264148    0.0000000000000000
     0.0000000000000000    0.0000000000000000    5.4446235223565109
 Y   W   N  
   4   4  12
Direct
  0.0000000000000000  0.8064393091694768  0.0080170413808958
  0.4999999999999999  0.4193179275084303  0.5080170413808958
  0.0000000000000000  0.3019989463732672  0.5280849903892033
  0.4999999999999999  0.9237582903046402  1.0280849903892029
  0.7535904283253672  0.8572648716602131  0.5308977412514366
  0.7464095716746327  0.3684923650176941  1.0308977412514368
  0.2535904283253673  0.3684923650176941  1.0308977412514368
  0.2464095716746330  0.8572648716602131  0.5308977412514366
  0.0000000000000000  0.8901545888250979  0.4156296515136688
  0.4999999999999999  0.3356026478528091 -0.0843703484863312
  0.0000000000000000  0.3880983965939322  1.1040007400540046
  0.4999999999999999  0.8376588400839751  0.6040007400540048
  0.8004162899525581  0.5631258064616844  0.7111877704112146
  0.6995837100474418  0.6626314302162227  0.2111877704112146
  0.3004162899525581  0.6626314302162227  0.2111877704112146
  0.1995837100474419  0.5631258064616844  0.7111877704112146
  0.7010693172028225  0.1617807413603671  0.3104641904774184
  0.7989306827971773  1.0639764953175401  0.8104641904774185
  0.2010693172028227  1.0639764953175401  0.8104641904774185
  0.2989306827971774  0.1617807413603671  0.3104641904774184
