 Y  W  N 
 1.0000000000000000
     7.7406297560631474    0.0000000000000000    0.0000000000000000
     0.0000000000000000    5.6296892198264148    0.0000000000000000
     0.0000000000000000    0.0000000000000000    5.4446235223565109
 Y   W   N  
   4   4  12
Direct
  0.0000000000000000  0.8064393091694768  0.0080170413808958
  0.4999999999999999  0.2688131030564924  0.5080170413808958
  0.0000000000000000  0.3079194301015468  0.5013277250447933
  0.4999999999999999  0.7673329821244226  1.0013277250447932
  0.7535904283253670  0.7894974550058980  0.5003901414240488
  0.7464095716746327  0.2857549572200711  1.0003901414240490
  0.2535904283253672  0.2857549572200711  1.0003901414240490
  0.2464095716746329  0.7894974550058980  0.5003901414240488
  0.0000000000000000  0.7785342159509365  0.5388128380033046
  0.4999999999999999  0.2967181962750326  0.0388128380033046
  0.0000000000000000  0.2792196133613251  0.9760224751565261
  0.4999999999999999  0.7960327988646441  0.4760224751565261
  0.7341849747860678  0.4884405201396192  0.7074425183266536
  0.7658150252139321  0.5868118920863500  0.2074425183266537
  0.2341849747860678  0.5868118920863500  0.2074425183266537
  0.2658150252139321  0.4884405201396192  0.7074425183266536
  0.7673006323693129  0.0870954550383019  0.3067189383928574
  0.7326993676306870  0.9881569571876673  0.8067189383928574
  0.2673006323693130  0.9881569571876673  0.8067189383928574
  0.2326993676306871  0.0870954550383019  0.3067189383928574
