 Y  W  N 
 1.0000000000000000
     7.7406297560631474    0.0000000000000000    0.0000000000000000
     0.0000000000000000    5.6296892198264148    0.0000000000000000
     0.0000000000000000    0.0000000000000000    5.4446235223565109
 Y   W   N  
   4   4  12
Direct
  0.0000000000000000  0.8064393091694768  0.0080170413808958
  0.4999999999999999  0.3440655152824616  0.5080170413808958
  0.0000000000000000  0.3049591882374070  0.5147063577169984
  0.4999999999999999  0.8455456362145315  1.0147063577169981
  0.7535904283253672  0.8233811633330558  0.5156439413377428
  0.7464095716746327  0.3271236611188827  1.0156439413377429
  0.2535904283253673  0.3271236611188827  1.0156439413377429
  0.2464095716746329  0.8233811633330558  0.5156439413377428
  0.0000000000000000  0.8343444023880174  0.4772212447584865
  0.4999999999999999  0.3161604220639209 -0.0227787552415135
  0.0000000000000000  0.3336590049776288  1.0400116076052657
  0.4999999999999999  0.8168458194743096  0.5400116076052657
  0.7673006323693131  0.5257831633006519  0.7093151443689342
  0.7326993676306868  0.6247216611512866  0.2093151443689342
  0.2673006323693131  0.6247216611512866  0.2093151443689342
  0.2326993676306869  0.5257831633006519  0.7093151443689342
  0.7341849747860676  0.1244380981993346  0.3085915644351379
  0.7658150252139323  1.0260667262526038  0.8085915644351379
  0.2341849747860678  1.0260667262526038  0.8085915644351379
  0.2658150252139324  0.1244380981993346  0.3085915644351379
