 Y  W  N 
 1.0000000000000000
     7.7406297560631474    0.0000000000000000    0.0000000000000000
     0.0000000000000000    5.6296892198264148    0.0000000000000000
     0.0000000000000000    0.0000000000000000    5.4446235223565109
 Y   W   N  
   4   4  12
Direct
  0.0000000000000000  0.8064393091694768  0.0080170413808958
  0.4999999999999999  0.2311868969435078  0.5080170413808958
  0.0000000000000000  0.3093995510336167  0.4946384087086908
  0.4999999999999999  0.7282266550793680  0.9946384087086907
  0.7535904283253670  0.7725556008423192  0.4927632414672019
  0.7464095716746327  0.2650706052706653  0.9927632414672020
  0.2535904283253672  0.2650706052706653  0.9927632414672020
  0.2464095716746328  0.7725556008423192  0.4927632414672019
  0.0000000000000000  0.7506291227323962  0.5696086346257135
  0.4999999999999999  0.2869970833805884  0.0696086346257137
  0.0000000000000000  0.2519999175531732  0.9440279089321565
  0.4999999999999999  0.7856262885598113  0.4440279089321565
  0.7176271459944452  0.4697691985591029  0.7065062053055134
  0.7823728540055547  0.5678570075538817  0.2065062053055134
  0.2176271459944452  0.5678570075538817  0.2065062053055134
  0.2823728540055547  0.4697691985591029  0.7065062053055134
  0.7838584611609355  0.0684241334577855  0.3057826253717171
  0.7161415388390644  0.9692020726551991  0.8057826253717172
  0.2838584611609355  0.9692020726551991  0.8057826253717172
  0.2161415388390644  0.0684241334577855  0.3057826253717171
