Zr8 Sb16                                
   1.0000000000000000     
     3.8809267146751987    0.0000000000000000    0.0000000000000000
     0.0000000000000000    9.9690421588849532    0.0000000000000000
     0.0000000000000000    0.0000000000000000   14.9173442831568703
   Zr   Sb
     8    16
Direct
  0.5000000000000000  0.6690741121540213  0.9934145992821826
  0.5000000000000000  0.3309258878459787  0.0065854007178174
  0.0000000000000000  0.1690741121540213  0.5065854007178174
  0.0000000000000000  0.8309258878459787  0.4934145992821826
  0.0000000000000000  0.9793781939457276  0.7490073287369583
  0.0000000000000000  0.0206218060542724  0.2509926712630417
  0.5000000000000000  0.4793781939457276  0.7509926712630417
  0.5000000000000000  0.5206218060542724  0.2490073287369583
  0.0000000000000000  0.8844849607915393  0.9419761615764628
  0.0000000000000000  0.1155150392084607  0.0580238384235372
  0.5000000000000000  0.3844849607915393  0.5580238384235372
  0.5000000000000000  0.6155150392084607  0.4419761615764628
  0.0000000000000000  0.6615208988224097  0.6586143403684872
  0.0000000000000000  0.3384791011775903  0.3413856596315128
  0.5000000000000000  0.1615208988224097  0.8413856596315128
  0.5000000000000000  0.8384791011775903  0.1586143403684872
  0.5000000000000000  0.7704123609326743  0.8020846514880162
  0.5000000000000000  0.2295876390673257  0.1979153485119909
  0.0000000000000000  0.2704123609326743  0.6979153485119838
  0.0000000000000000  0.7295876390673257  0.3020846514880091
  0.5000000000000000  0.9887435708870811  0.6027635849099653
  0.5000000000000000  0.0112564291129189  0.3972364150900347
  0.0000000000000000  0.4887425708870836  0.8972364150900347
  0.0000000000000000  0.5112564291129189  0.1027635849099653

  0.00000000E+00  0.00000000E+00  0.00000000E+00
  0.00000000E+00  0.00000000E+00  0.00000000E+00
  0.00000000E+00  0.00000000E+00  0.00000000E+00
  0.00000000E+00  0.00000000E+00  0.00000000E+00
  0.00000000E+00  0.00000000E+00  0.00000000E+00
  0.00000000E+00  0.00000000E+00  0.00000000E+00
  0.00000000E+00  0.00000000E+00  0.00000000E+00
  0.00000000E+00  0.00000000E+00  0.00000000E+00
  0.00000000E+00  0.00000000E+00  0.00000000E+00
  0.00000000E+00  0.00000000E+00  0.00000000E+00
  0.00000000E+00  0.00000000E+00  0.00000000E+00
  0.00000000E+00  0.00000000E+00  0.00000000E+00
  0.00000000E+00  0.00000000E+00  0.00000000E+00
  0.00000000E+00  0.00000000E+00  0.00000000E+00
  0.00000000E+00  0.00000000E+00  0.00000000E+00
  0.00000000E+00  0.00000000E+00  0.00000000E+00
  0.00000000E+00  0.00000000E+00  0.00000000E+00
  0.00000000E+00  0.00000000E+00  0.00000000E+00
  0.00000000E+00  0.00000000E+00  0.00000000E+00
  0.00000000E+00  0.00000000E+00  0.00000000E+00
  0.00000000E+00  0.00000000E+00  0.00000000E+00
  0.00000000E+00  0.00000000E+00  0.00000000E+00
  0.00000000E+00  0.00000000E+00  0.00000000E+00
  0.00000000E+00  0.00000000E+00  0.00000000E+00
