Mo8 N8                                  
   1.0000000000000000     
     2.8470683808777069   -4.9312682514030373    0.0000000000000000
     2.8470683808777069    4.9312682514030373   -0.0000000000000000
     0.0000000000000000   -0.0000000000000000    5.6000402326386736
   Mo   N 
     8     8
Direct
  0.5146726369899142  0.4853273630100858  0.7483399491046683
  0.0293462739798329  0.5146726369899142  0.2483399491046683
  0.4853273630100858  0.9706537260201742  0.2483399491046683
  0.5146726369899142  0.0293462739798329  0.7483399491046683
  0.4853273630100858  0.5146726369899142  0.2483399491046683
  0.9706537260201742  0.4853273630100858  0.7483399491046683
  0.0000000000000000  0.0000000000000000  0.2538117455165718
  0.0000000000000000  0.0000000000000000  0.7538117455165718
  0.1665040523885040  0.3330081047770008  0.9930325835938874
  0.3330081047770008  0.1665040523885040  0.4930325835938874
  0.8334959476115031  0.6669918952229992  0.4930325835938874
  0.8334959476115031  0.1665040523885040  0.4930325835938874
  0.6666669999999968  0.3333330000000032  0.0220706563877755
  0.1665040523885040  0.8334959476115031  0.9930325835938874
  0.6669918952229992  0.8334959476115031  0.9930325835938874
  0.3333330000000032  0.6666669999999968  0.5220706563877755

  0.00000000E+00  0.00000000E+00  0.00000000E+00
  0.00000000E+00  0.00000000E+00  0.00000000E+00
  0.00000000E+00  0.00000000E+00  0.00000000E+00
  0.00000000E+00  0.00000000E+00  0.00000000E+00
  0.00000000E+00  0.00000000E+00  0.00000000E+00
  0.00000000E+00  0.00000000E+00  0.00000000E+00
  0.00000000E+00  0.00000000E+00  0.00000000E+00
  0.00000000E+00  0.00000000E+00  0.00000000E+00
  0.00000000E+00  0.00000000E+00  0.00000000E+00
  0.00000000E+00  0.00000000E+00  0.00000000E+00
  0.00000000E+00  0.00000000E+00  0.00000000E+00
  0.00000000E+00  0.00000000E+00  0.00000000E+00
  0.00000000E+00  0.00000000E+00  0.00000000E+00
  0.00000000E+00  0.00000000E+00  0.00000000E+00
  0.00000000E+00  0.00000000E+00  0.00000000E+00
  0.00000000E+00  0.00000000E+00  0.00000000E+00
