N8                                      
   1.0000000000000000     
     5.9947320329132836    0.0000000000000000    0.0000000000000000
    -0.0000000000000000    5.9947320329132836   -0.0000000000000000
    -0.0000000000000000   -0.0000000000000000    5.9947320329132836
   N 
     8
Direct
  0.0592827401851750  0.0592827401851750  0.0592827401851750
  0.4407172598148250  0.9407172598148321  0.5592827401851679
  0.5592827401851679  0.4407172598148250  0.9407172598148321
  0.9407172598148321  0.5592827401851679  0.4407172598148250
  0.9532177423911534  0.9532177423911534  0.9532177423911534
  0.5467822576088466  0.0467822576088395  0.4532177423911605
  0.4532177423911605  0.5467822576088466  0.0467822576088395
  0.0467822576088395  0.4532177423911605  0.5467822576088466

  0.00000000E+00  0.00000000E+00  0.00000000E+00
  0.00000000E+00  0.00000000E+00  0.00000000E+00
  0.00000000E+00  0.00000000E+00  0.00000000E+00
  0.00000000E+00  0.00000000E+00  0.00000000E+00
  0.00000000E+00  0.00000000E+00  0.00000000E+00
  0.00000000E+00  0.00000000E+00  0.00000000E+00
  0.00000000E+00  0.00000000E+00  0.00000000E+00
  0.00000000E+00  0.00000000E+00  0.00000000E+00
