Y4                                      
   1.0000000000000000     
     1.8236782784044956   -3.1587035354206763   -0.0000000000000000
     1.8236782784044956    3.1587035354206763   -0.0000000000000000
    -0.0000000000000000    0.0000000000000000   11.8429432712222784
   Y 
     4
Direct
  0.0000000000000000  0.0000000000000000  0.0000000000000000
  0.3333330000000032  0.6666669999999968  0.2500000000000000
  0.0000000000000000  0.0000000000000000  0.5000000000000000
  0.6666669999999968  0.3333330000000032  0.7500000000000000

  0.00000000E+00  0.00000000E+00  0.00000000E+00
  0.00000000E+00  0.00000000E+00  0.00000000E+00
  0.00000000E+00  0.00000000E+00  0.00000000E+00
  0.00000000E+00  0.00000000E+00  0.00000000E+00
