Mo4 N2                                  
   1.0000000000000000     
    -2.1044881973925302    2.1044881973925302    3.9340546409924642
     2.1044881973925302   -2.1044881973925302    3.9340546409924642
     2.1044881973925302    2.1044881973925302   -3.9340546409924642
   Mo   N 
     4     2
Direct
  0.9869728349012235  0.4869728349012235  0.5000000000000000
  0.2369728349012235  0.2369728349012235  0.0000000000000000
  0.5130271650987765  0.0130271650987765  0.5000000000000000
  0.7630271650987765  0.7630271650987765  0.0000000000000000
  0.2500000000000000  0.7500000000000000  0.5000000000000000
  0.5000000000000000  0.5000000000000000  0.0000000000000000

  0.00000000E+00  0.00000000E+00  0.00000000E+00
  0.00000000E+00  0.00000000E+00  0.00000000E+00
  0.00000000E+00  0.00000000E+00  0.00000000E+00
  0.00000000E+00  0.00000000E+00  0.00000000E+00
  0.00000000E+00  0.00000000E+00  0.00000000E+00
  0.00000000E+00  0.00000000E+00  0.00000000E+00
