Hf8 Nb8 N24                             
   1.0000000000000000     
     7.4694083581842712    0.0000000000000000   -0.0237173216021173
     0.0000000000000000    8.0569855628237406    0.0000000000000000
    -7.0363583950149966    0.0000000000000000    7.7090018763482293
   Hf   Nb   N 
     8     8    24
Direct
  0.9428231888925893  0.2775042890690287  0.4637859320510600
  0.9428231888925893  0.2224957109309713  0.9637859320510600
  0.4321648656262340  0.2144655955654926  0.9805069768153061
  0.4321648656262340  0.2855344044345074  0.4805069768153061
  0.0571768111074107  0.7775042890690287  0.0362140679489471
  0.0571768111074107  0.7224957109309713  0.5362140679489400
  0.5678351343737660  0.7144655955654926  0.5194930231846939
  0.5678351343737660  0.7855344044345074  0.0194930231846939
  0.5160478598832583  0.0027275081755391  0.2785432687215348
  0.4839521401167417  0.9972724918244609  0.7214567312784652
  0.9867767753546275  0.9822714458722928  0.7480155037398006
  0.0132232246453725  0.0177285541277072  0.2519844962601994
  0.4839521401167417  0.5027275081755391  0.2214567312784581
  0.5160478598832583  0.4972724918244609  0.7785432687215348
  0.0132232246453725  0.4822714458722928  0.7519844962601994
  0.9867767753546275  0.5177285541277072  0.2480155037398006
  0.6777574855108810  0.0337711136470418  0.1805137104561894
  0.7031921396762186  0.1098783973813440  0.6948781246087563
  0.5761568541875306  0.2230485150733301  0.3657023425687100
  0.5761568541875306  0.2769514849266699  0.8657023425687100
  0.8008839611620928  0.8862554950261057  0.4985562578655802
  0.8134912792007825  0.9570542653296386  0.9954491175627780
  0.2968078603237814  0.8901216026186560  0.3051218753912437
  0.3222425144891190  0.9662288863529582  0.8194862895438106
  0.0705996960553534  0.2406289518406055  0.2128474718710152
  0.0705996960553534  0.2593710481593945  0.7128474718710152
  0.1865087207992175  0.0429457346703614  0.0045508824372291
  0.1991160388379072  0.1137445049738943  0.5014437421344198
  0.7031921396762186  0.3901216026186560  0.1948781246087563
  0.6777574855108810  0.4662288863529582  0.6805137104561894
  0.4238431458124694  0.7230485150733301  0.1342976574312900
  0.4238431458124694  0.7769514849266699  0.6342976574312900
  0.8134912792007825  0.5429457346703614  0.4954491175627780
  0.8008839611620928  0.6137445049738943  0.9985562578655802
  0.3222425144891190  0.5337711136470418  0.3194862895438106
  0.2968078603237814  0.6098783973813440  0.8051218753912437
  0.9294003039446466  0.7406289518406055  0.2871525281289848
  0.9294003039446466  0.7593710481593945  0.7871525281289848
  0.1991160388379072  0.3862554950261057  0.0014437421344198
  0.1865087207992175  0.4570542653296386  0.5045508824372220

  0.00000000E+00  0.00000000E+00  0.00000000E+00
  0.00000000E+00  0.00000000E+00  0.00000000E+00
  0.00000000E+00  0.00000000E+00  0.00000000E+00
  0.00000000E+00  0.00000000E+00  0.00000000E+00
  0.00000000E+00  0.00000000E+00  0.00000000E+00
  0.00000000E+00  0.00000000E+00  0.00000000E+00
  0.00000000E+00  0.00000000E+00  0.00000000E+00
  0.00000000E+00  0.00000000E+00  0.00000000E+00
  0.00000000E+00  0.00000000E+00  0.00000000E+00
  0.00000000E+00  0.00000000E+00  0.00000000E+00
  0.00000000E+00  0.00000000E+00  0.00000000E+00
  0.00000000E+00  0.00000000E+00  0.00000000E+00
  0.00000000E+00  0.00000000E+00  0.00000000E+00
  0.00000000E+00  0.00000000E+00  0.00000000E+00
  0.00000000E+00  0.00000000E+00  0.00000000E+00
  0.00000000E+00  0.00000000E+00  0.00000000E+00
  0.00000000E+00  0.00000000E+00  0.00000000E+00
  0.00000000E+00  0.00000000E+00  0.00000000E+00
  0.00000000E+00  0.00000000E+00  0.00000000E+00
  0.00000000E+00  0.00000000E+00  0.00000000E+00
  0.00000000E+00  0.00000000E+00  0.00000000E+00
  0.00000000E+00  0.00000000E+00  0.00000000E+00
  0.00000000E+00  0.00000000E+00  0.00000000E+00
  0.00000000E+00  0.00000000E+00  0.00000000E+00
  0.00000000E+00  0.00000000E+00  0.00000000E+00
  0.00000000E+00  0.00000000E+00  0.00000000E+00
  0.00000000E+00  0.00000000E+00  0.00000000E+00
  0.00000000E+00  0.00000000E+00  0.00000000E+00
  0.00000000E+00  0.00000000E+00  0.00000000E+00
  0.00000000E+00  0.00000000E+00  0.00000000E+00
  0.00000000E+00  0.00000000E+00  0.00000000E+00
  0.00000000E+00  0.00000000E+00  0.00000000E+00
  0.00000000E+00  0.00000000E+00  0.00000000E+00
  0.00000000E+00  0.00000000E+00  0.00000000E+00
  0.00000000E+00  0.00000000E+00  0.00000000E+00
  0.00000000E+00  0.00000000E+00  0.00000000E+00
  0.00000000E+00  0.00000000E+00  0.00000000E+00
  0.00000000E+00  0.00000000E+00  0.00000000E+00
  0.00000000E+00  0.00000000E+00  0.00000000E+00
  0.00000000E+00  0.00000000E+00  0.00000000E+00
