Zr4 V4 N12                              
   1.0000000000000000     
     3.0541727809056756    0.0000000013851850    0.0000000087528840
     0.0000000017834811    6.9944097456491523    0.0000000097563208
     0.0000000265490349    0.0000000119901964    9.4577120906753791
   Zr   V    N 
     4     4    12
Direct
  0.2499039634182081  0.7500030413592655  0.2625105032300121
  0.7500960141523998  0.7499969568021477  0.7625105272155238
  0.7499039802150901  0.2499969586580257  0.2374894973109487
  0.2500960298265599  0.2500030425729352  0.7374894722089237
  0.3782965110195920  0.9999838502567524  0.9999911442299323
  0.6217034876356218  0.5000161954077218  0.4999910197286584
  0.8782965116175954  0.0000161488206495  0.5000088561473939
  0.1217034879185391  0.4999838061622265  0.0000089796973918
  0.2630770290885888  0.5634031238495062  0.6381440836099224
  0.7369232016601291  0.9365968737105435  0.1381441294846756
  0.7630770348720656  0.4365968765419687  0.8618559163203540
  0.2369232086103948  0.0634031260198351  0.3618558711073002
  0.2629093387802620  0.4366306021592273  0.3618737209378869
  0.7370904341636618  0.0633693990508718  0.8618737639881721
  0.7629093377266427  0.5633693976815279  0.1381262803837029
  0.2370904358099542  0.9366306003514154  0.6381262352631067
  0.7500694526058563  0.2500151799746708  0.5776561822509328
  0.2499305485444779  0.2499848193961956  0.0776562457814105
  0.2500694469953090  0.7499848206441101  0.9223438154608176
  0.7499305453390520  0.7500151805803963  0.4223437556429335

  0.00000000E+00  0.00000000E+00  0.00000000E+00
  0.00000000E+00  0.00000000E+00  0.00000000E+00
  0.00000000E+00  0.00000000E+00  0.00000000E+00
  0.00000000E+00  0.00000000E+00  0.00000000E+00
  0.00000000E+00  0.00000000E+00  0.00000000E+00
  0.00000000E+00  0.00000000E+00  0.00000000E+00
  0.00000000E+00  0.00000000E+00  0.00000000E+00
  0.00000000E+00  0.00000000E+00  0.00000000E+00
  0.00000000E+00  0.00000000E+00  0.00000000E+00
  0.00000000E+00  0.00000000E+00  0.00000000E+00
  0.00000000E+00  0.00000000E+00  0.00000000E+00
  0.00000000E+00  0.00000000E+00  0.00000000E+00
  0.00000000E+00  0.00000000E+00  0.00000000E+00
  0.00000000E+00  0.00000000E+00  0.00000000E+00
  0.00000000E+00  0.00000000E+00  0.00000000E+00
  0.00000000E+00  0.00000000E+00  0.00000000E+00
  0.00000000E+00  0.00000000E+00  0.00000000E+00
  0.00000000E+00  0.00000000E+00  0.00000000E+00
  0.00000000E+00  0.00000000E+00  0.00000000E+00
  0.00000000E+00  0.00000000E+00  0.00000000E+00
