Tl4 Mo4 N12                             
   1.0000000000000000     
     6.7117341396948209    0.0000000000000000    0.0000000000000000
     0.0000000000000000    7.3139270896687627    0.0000000000000000
     0.0000000000000000    0.0000000000000000    6.0115897099656284
   Tl   Mo   N 
     4     4    12
Direct
  0.5000000000000000  0.2846392148652956  0.9525989601890820
  0.5000000000000000  0.7153607851347044  0.4525989601890820
  0.0000000000000000  0.2847370956939251  0.9528731122218503
  0.0000000000000000  0.7152629043060748  0.4528731122218431
  0.2499927709904966  0.2660499669549689  0.4343401378102187
  0.7500072290095033  0.7339500330450309  0.9343401378102186
  0.2499927709904966  0.7339500330450309  0.9343401378102186
  0.7500072290095033  0.2660499669549689  0.4343401378102187
  0.2499041896702883  0.5034777678199177  0.3808463743304756
  0.7500958103297117  0.4965222321800752  0.8808463743304755
  0.2499041896702883  0.4965222321800752  0.8808463743304755
  0.7500958103297117  0.5034777678199177  0.3808463743304756
  0.5000000000000000  0.2175408461549294  0.5753878866391060
  0.5000000000000000  0.7824591538450705  0.0753878866391060
  0.2500487876776428  0.1618210413034637  0.1566839249107394
  0.7499512123223572  0.8381789586965362  0.6566839249107393
  0.2500487876776428  0.8381789586965362  0.6566839249107393
  0.7499512123223572  0.1618210413034637  0.1566839249107394
  0.0000000000000000  0.2174606950396897  0.5753951668471046
  0.0000000000000000  0.7825393049603102  0.0753951668471045

  0.00000000E+00  0.00000000E+00  0.00000000E+00
  0.00000000E+00  0.00000000E+00  0.00000000E+00
  0.00000000E+00  0.00000000E+00  0.00000000E+00
  0.00000000E+00  0.00000000E+00  0.00000000E+00
  0.00000000E+00  0.00000000E+00  0.00000000E+00
  0.00000000E+00  0.00000000E+00  0.00000000E+00
  0.00000000E+00  0.00000000E+00  0.00000000E+00
  0.00000000E+00  0.00000000E+00  0.00000000E+00
  0.00000000E+00  0.00000000E+00  0.00000000E+00
  0.00000000E+00  0.00000000E+00  0.00000000E+00
  0.00000000E+00  0.00000000E+00  0.00000000E+00
  0.00000000E+00  0.00000000E+00  0.00000000E+00
  0.00000000E+00  0.00000000E+00  0.00000000E+00
  0.00000000E+00  0.00000000E+00  0.00000000E+00
  0.00000000E+00  0.00000000E+00  0.00000000E+00
  0.00000000E+00  0.00000000E+00  0.00000000E+00
  0.00000000E+00  0.00000000E+00  0.00000000E+00
  0.00000000E+00  0.00000000E+00  0.00000000E+00
  0.00000000E+00  0.00000000E+00  0.00000000E+00
  0.00000000E+00  0.00000000E+00  0.00000000E+00
