Sc4 W4 N12                              
   1.0000000000000000     
     7.4617828837748768    0.0000000000000000    0.0000000000000000
     0.0000000000000000    5.5696875404330468    0.0000000000000000
     0.0000000000000000    0.0000000000000000    5.2725034336758769
   Sc   W    N 
     4     4    12
Direct
  0.5000000000000000  0.1789987047808097  0.4958467341772561
  0.5000000000000000  0.6717705893073003  0.0077860667043552
  0.0000000000000000  0.3282294106926997  0.5077860667043552
  0.0000000000000000  0.8210012952191903  0.9958467341772561
  0.7590039110401179  0.7639223600587854  0.5329112145780286
  0.7409960889598821  0.2360776399412146  0.0329112145780286
  0.2409960889598821  0.7639223600587854  0.5329112145780286
  0.2590039110401179  0.2360776399412146  0.0329112145780286
  0.5000000000000000  0.7912042054006889  0.6039121090804827
  0.8138183720601759  0.0604561853005237  0.6743479791813058
  0.6861816279398241  0.9395438146994763  0.1743479791813058
  0.5000000000000000  0.2974974282927576  0.8691564126267792
  0.6905900249334422  0.4356856193214540  0.3041441449462212
  0.8094099750665578  0.5643143806785460  0.8041441449462212
  0.0000000000000000  0.7025025717072424  0.3691564126267792
  0.1861816279398241  0.0604561853005237  0.6743479791813058
  0.3138183720601759  0.9395438146994763  0.1743479791813058
  0.0000000000000000  0.2087957945993111  0.1039121090804827
  0.3094099750665578  0.4356856193214540  0.3041441449462212
  0.1905900249334422  0.5643143806785460  0.8041441449462212

  0.00000000E+00  0.00000000E+00  0.00000000E+00
  0.00000000E+00  0.00000000E+00  0.00000000E+00
  0.00000000E+00  0.00000000E+00  0.00000000E+00
  0.00000000E+00  0.00000000E+00  0.00000000E+00
  0.00000000E+00  0.00000000E+00  0.00000000E+00
  0.00000000E+00  0.00000000E+00  0.00000000E+00
  0.00000000E+00  0.00000000E+00  0.00000000E+00
  0.00000000E+00  0.00000000E+00  0.00000000E+00
  0.00000000E+00  0.00000000E+00  0.00000000E+00
  0.00000000E+00  0.00000000E+00  0.00000000E+00
  0.00000000E+00  0.00000000E+00  0.00000000E+00
  0.00000000E+00  0.00000000E+00  0.00000000E+00
  0.00000000E+00  0.00000000E+00  0.00000000E+00
  0.00000000E+00  0.00000000E+00  0.00000000E+00
  0.00000000E+00  0.00000000E+00  0.00000000E+00
  0.00000000E+00  0.00000000E+00  0.00000000E+00
  0.00000000E+00  0.00000000E+00  0.00000000E+00
  0.00000000E+00  0.00000000E+00  0.00000000E+00
  0.00000000E+00  0.00000000E+00  0.00000000E+00
  0.00000000E+00  0.00000000E+00  0.00000000E+00
