La4 Mo4 N12                             
   1.0000000000000000     
     0.0305059041140875   -0.0015542694049767   -7.9957795633490427
    -0.0035370152236747   -5.6552935428195958    0.0000173147807964
    -5.6842838334928203    0.0007000615635273    0.0267028617930321
   La   Mo   N 
     4     4    12
Direct
  0.5022069214097670  0.9872917344098646  0.9921874150983869
  0.5022422993359900  0.4866086139631837  0.4922217524442911
  0.0020430502325148  0.9867458663695224  0.9916266697946761
  0.0020040068096523  0.4871482501977822  0.4915753901160162
  0.7554108166134801  0.9864695063741783  0.4848596053620470
  0.2553945501973959  0.4867076615289171  0.9849428156833809
  0.7553391610449482  0.4872649776593861  0.9847887871031263
  0.2553252237747189  0.9870347216853292  0.4848758120667501
  0.4784548104841206  0.0399267564715017  0.5360972793615639
  0.4784390627044127  0.4337833842072487  0.0375415017844151
  0.7568820715692456  0.2580457469540980  0.3106083478240295
  0.2031186020281929  0.2106393165572714  0.2634961830495521
  0.7038796825881367  0.7618143623324640  0.2645673185348623
  0.2039155967771369  0.2631801475530354  0.7634705493155781
  0.7562355453524697  0.2157530986017437  0.8106233704442946
  0.2562667561646976  0.7144776800326237  0.3122025060648506
  0.7030808035850703  0.7119791872546155  0.7645843299649479
  0.2569085334987845  0.7593419460290268  0.8121936473256172
  0.9784792203470380  0.9336625636729909  0.5376191950587434
  0.9784933052704243  0.5400475640461037  0.0361851416000185

  0.00000000E+00  0.00000000E+00  0.00000000E+00
  0.00000000E+00  0.00000000E+00  0.00000000E+00
  0.00000000E+00  0.00000000E+00  0.00000000E+00
  0.00000000E+00  0.00000000E+00  0.00000000E+00
  0.00000000E+00  0.00000000E+00  0.00000000E+00
  0.00000000E+00  0.00000000E+00  0.00000000E+00
  0.00000000E+00  0.00000000E+00  0.00000000E+00
  0.00000000E+00  0.00000000E+00  0.00000000E+00
  0.00000000E+00  0.00000000E+00  0.00000000E+00
  0.00000000E+00  0.00000000E+00  0.00000000E+00
  0.00000000E+00  0.00000000E+00  0.00000000E+00
  0.00000000E+00  0.00000000E+00  0.00000000E+00
  0.00000000E+00  0.00000000E+00  0.00000000E+00
  0.00000000E+00  0.00000000E+00  0.00000000E+00
  0.00000000E+00  0.00000000E+00  0.00000000E+00
  0.00000000E+00  0.00000000E+00  0.00000000E+00
  0.00000000E+00  0.00000000E+00  0.00000000E+00
  0.00000000E+00  0.00000000E+00  0.00000000E+00
  0.00000000E+00  0.00000000E+00  0.00000000E+00
  0.00000000E+00  0.00000000E+00  0.00000000E+00
