Ga4 W4 N12                              
   1.0000000000000000     
     5.6920788115486083   -0.0000000598811397   -0.0460245381733097
    -0.0000000576781878    5.1537605054991174   -0.0000000407687428
    -0.8761418890086291   -0.0000000512565133    7.5034345158235105
   Ga   W    N 
     4     4    12
Direct
  0.3827987199487453  0.9941509148840026  0.3023671757159647
  0.0673466809353442  0.5032774659043540  0.7202777597609824
  0.3827987193534028  0.0058491434140677  0.8023671495999523
  0.0673465806090618  0.4967225956713435  0.2202778028422472
  0.9492874329243719  0.0091763146548800  0.4880408555232520
  0.4940516008416935  0.5009387324008898  0.0323913580859241
  0.9492874334578261  0.9908236725857336  0.9880408533567504
  0.4940516342410035  0.4990612720967249  0.5323913554056148
  0.0401224971769736  0.1315295956520188  0.2392978442497906
  0.4963358646726448  0.6497341429211332  0.7461674930572499
  0.3448862274537987  0.1924690569067167  0.5684616454471438
  0.8365443657548326  0.6707587347577331  0.0569254702151056
  0.2062472066035355  0.6943585936363519  0.4193873785353546
  0.6854143913131594  0.1622559127368532  0.9230279847491545
  0.0401225533508835  0.8684704263136425  0.7392978445041223
  0.4963358940619287  0.3502658447191749  0.2461674949060182
  0.6854143955976184  0.8377440365343531  0.4230280027724973
  0.2062472142581413  0.3056413868162764  0.9193873500940910
  0.8365443917631268  0.3292412470507173  0.5569254891331639
  0.3448861956818732  0.8075309103430328  0.0684616920456662

  0.00000000E+00  0.00000000E+00  0.00000000E+00
  0.00000000E+00  0.00000000E+00  0.00000000E+00
  0.00000000E+00  0.00000000E+00  0.00000000E+00
  0.00000000E+00  0.00000000E+00  0.00000000E+00
  0.00000000E+00  0.00000000E+00  0.00000000E+00
  0.00000000E+00  0.00000000E+00  0.00000000E+00
  0.00000000E+00  0.00000000E+00  0.00000000E+00
  0.00000000E+00  0.00000000E+00  0.00000000E+00
  0.00000000E+00  0.00000000E+00  0.00000000E+00
  0.00000000E+00  0.00000000E+00  0.00000000E+00
  0.00000000E+00  0.00000000E+00  0.00000000E+00
  0.00000000E+00  0.00000000E+00  0.00000000E+00
  0.00000000E+00  0.00000000E+00  0.00000000E+00
  0.00000000E+00  0.00000000E+00  0.00000000E+00
  0.00000000E+00  0.00000000E+00  0.00000000E+00
  0.00000000E+00  0.00000000E+00  0.00000000E+00
  0.00000000E+00  0.00000000E+00  0.00000000E+00
  0.00000000E+00  0.00000000E+00  0.00000000E+00
  0.00000000E+00  0.00000000E+00  0.00000000E+00
  0.00000000E+00  0.00000000E+00  0.00000000E+00
