La8 W8 N24                              
   1.0000000000000000     
     5.6577668680336197   -0.0000004609093491   -0.0216178248370542
    -0.0000004592671018    5.6585711364195257    0.0000000420318580
     0.0438918483344886    0.0000001110958763   15.9459422959448212
   La   W    N 
     8     8    24
Direct
  0.0974536649276787  0.2498520165124972  0.1751012215196757
  0.5974536717406879  0.7501479312406819  0.6751012582021098
  0.5973373201953681  0.7498276178799216  0.9250835896519942
  0.0973373694632492  0.2501723316372556  0.4250836011151363
  0.5974536915412918  0.7501478067544626  0.1751012239677678
  0.0974536425567762  0.2498521285370912  0.6751012188845434
  0.0973372722056173  0.2501725852057851  0.9250835775679743
  0.5973372442502253  0.7498273602783581  0.4250835552789648
  0.1021478629543707  0.7503392719740951  0.2990844306077785
  0.6021478393569960  0.2496606766634019  0.7990844418406797
  0.6021414393686407  0.2503028587025547  0.5490856458099762
  0.1021414441564539  0.7496970867099079  0.0490856330358901
  0.6021477221767468  0.2496604108986537  0.2990844087312554
  0.1021476662451340  0.7503395118410541  0.7990844168722118
  0.1021416331911626  0.7496970940431117  0.5490857219147152
  0.6021416809018635  0.2503028193010716  0.0490857076381243
  0.7890867580147745  0.9774850526827467  0.0461024299329401
  0.2890866858227010  0.0225150043543934  0.5461024562584520
  0.5594475717275049  0.3022908106755881  0.9338030721369749
  0.0594475711647797  0.6977091987803328  0.4338030654314390
  0.8329764982224348  0.0212397435658233  0.8223206889812987
  0.3329765167664509  0.9787602980449130  0.3223206759906113
  0.0594213293193741  0.8023085606281338  0.1837995633358908
  0.5594213131996475  0.1976914865479813  0.6837995798404705
  0.7890868216242113  0.9774852287882277  0.5461022264219549
  0.2890868418607067  0.0225148229320102  0.0461022379570280
  0.8331954434783279  0.4785049690436170  0.0723172043303226
  0.3331954157588472  0.5214950779772453  0.5723172029914038
  0.7893675565827208  0.5222734723821977  0.2961022964682101
  0.2893675538438291  0.4777265907333367  0.7961023008441844
  0.8329764466468776  0.0212394257552498  0.3223205488131796
  0.3329764027734041  0.9787606196272528  0.8223205709039138
  0.5594472042009064  0.3022908687449387  0.4338030428540422
  0.0594471965966749  0.6977091739259959  0.9338030473257823
  0.7893674449881493  0.5222738318934718  0.7961024043026897
  0.2893675079987170  0.4777262067857149  0.2961023599400311
  0.3331954841254645  0.5214948228442787  0.0723170222795979
  0.8331954418739855  0.4785051978075706  0.5723170488754521
  0.5594205209738305  0.1976912118193735  0.1837996394027154
  0.0594203072033413  0.8023088154796809  0.6837996617426225

  0.00000000E+00  0.00000000E+00  0.00000000E+00
  0.00000000E+00  0.00000000E+00  0.00000000E+00
  0.00000000E+00  0.00000000E+00  0.00000000E+00
  0.00000000E+00  0.00000000E+00  0.00000000E+00
  0.00000000E+00  0.00000000E+00  0.00000000E+00
  0.00000000E+00  0.00000000E+00  0.00000000E+00
  0.00000000E+00  0.00000000E+00  0.00000000E+00
  0.00000000E+00  0.00000000E+00  0.00000000E+00
  0.00000000E+00  0.00000000E+00  0.00000000E+00
  0.00000000E+00  0.00000000E+00  0.00000000E+00
  0.00000000E+00  0.00000000E+00  0.00000000E+00
  0.00000000E+00  0.00000000E+00  0.00000000E+00
  0.00000000E+00  0.00000000E+00  0.00000000E+00
  0.00000000E+00  0.00000000E+00  0.00000000E+00
  0.00000000E+00  0.00000000E+00  0.00000000E+00
  0.00000000E+00  0.00000000E+00  0.00000000E+00
  0.00000000E+00  0.00000000E+00  0.00000000E+00
  0.00000000E+00  0.00000000E+00  0.00000000E+00
  0.00000000E+00  0.00000000E+00  0.00000000E+00
  0.00000000E+00  0.00000000E+00  0.00000000E+00
  0.00000000E+00  0.00000000E+00  0.00000000E+00
  0.00000000E+00  0.00000000E+00  0.00000000E+00
  0.00000000E+00  0.00000000E+00  0.00000000E+00
  0.00000000E+00  0.00000000E+00  0.00000000E+00
  0.00000000E+00  0.00000000E+00  0.00000000E+00
  0.00000000E+00  0.00000000E+00  0.00000000E+00
  0.00000000E+00  0.00000000E+00  0.00000000E+00
  0.00000000E+00  0.00000000E+00  0.00000000E+00
  0.00000000E+00  0.00000000E+00  0.00000000E+00
  0.00000000E+00  0.00000000E+00  0.00000000E+00
  0.00000000E+00  0.00000000E+00  0.00000000E+00
  0.00000000E+00  0.00000000E+00  0.00000000E+00
  0.00000000E+00  0.00000000E+00  0.00000000E+00
  0.00000000E+00  0.00000000E+00  0.00000000E+00
  0.00000000E+00  0.00000000E+00  0.00000000E+00
  0.00000000E+00  0.00000000E+00  0.00000000E+00
  0.00000000E+00  0.00000000E+00  0.00000000E+00
  0.00000000E+00  0.00000000E+00  0.00000000E+00
  0.00000000E+00  0.00000000E+00  0.00000000E+00
  0.00000000E+00  0.00000000E+00  0.00000000E+00
