Y4 Mo4 N12                              
   1.0000000000000000     
     7.5375020620408621    0.0000000000000000    0.0000000000000000
     0.0000000000000000    5.7287981122771905    0.0000000000000000
     0.0000000000000000    0.0000000000000000    5.5646264960869125
   Y    Mo   N 
     4     4    12
Direct
  0.5000000000000000  0.6800584323423763  0.5067822349025561
  0.5000000000000000  0.1855138134129056  0.0074146611195184
  0.0000000000000000  0.8144861865870943  0.5074146611195184
  0.0000000000000000  0.3199415676576238  0.0067822349025562
  0.2597665962033991  0.2355627226209502  0.5441186247835430
  0.2402334037966009  0.7644372773790498  0.0441186247835429
  0.7402334037966010  0.2355627226209502  0.5441186247835430
  0.7597665962033990  0.7644372773790498  0.0441186247835429
  0.2985016231854434  0.4341806669714458  0.7890133567717189
  0.5000000000000000  0.2901730386640277  0.3916479511011266
  0.2014983768145566  0.5658193330285541  0.2890133567717189
  0.2004140683271581  0.0462315498188759  0.1776044578800209
  0.5000000000000000  0.7767923080739977  0.0727642740062042
  0.2995859316728420  0.9537684501811242  0.6776044578800207
  0.7014983768145565  0.4341806669714458  0.7890133567717189
  0.0000000000000000  0.2232076919260023  0.5727642740062041
  0.7985016231854435  0.5658193330285541  0.2890133567717189
  0.7995859316728419  0.0462315498188759  0.1776044578800209
  0.0000000000000000  0.7098269613359725  0.8916479511011266
  0.7004140683271581  0.9537684501811242  0.6776044578800207

  0.00000000E+00  0.00000000E+00  0.00000000E+00
  0.00000000E+00  0.00000000E+00  0.00000000E+00
  0.00000000E+00  0.00000000E+00  0.00000000E+00
  0.00000000E+00  0.00000000E+00  0.00000000E+00
  0.00000000E+00  0.00000000E+00  0.00000000E+00
  0.00000000E+00  0.00000000E+00  0.00000000E+00
  0.00000000E+00  0.00000000E+00  0.00000000E+00
  0.00000000E+00  0.00000000E+00  0.00000000E+00
  0.00000000E+00  0.00000000E+00  0.00000000E+00
  0.00000000E+00  0.00000000E+00  0.00000000E+00
  0.00000000E+00  0.00000000E+00  0.00000000E+00
  0.00000000E+00  0.00000000E+00  0.00000000E+00
  0.00000000E+00  0.00000000E+00  0.00000000E+00
  0.00000000E+00  0.00000000E+00  0.00000000E+00
  0.00000000E+00  0.00000000E+00  0.00000000E+00
  0.00000000E+00  0.00000000E+00  0.00000000E+00
  0.00000000E+00  0.00000000E+00  0.00000000E+00
  0.00000000E+00  0.00000000E+00  0.00000000E+00
  0.00000000E+00  0.00000000E+00  0.00000000E+00
  0.00000000E+00  0.00000000E+00  0.00000000E+00
