Zr4 Sb4 N12                             
   1.0000000000000000     
     5.3634334862201545    0.0000000000000000    0.0000000000000000
     0.0000000000000000    8.3919656803010287   -0.0069420585529894
     0.0000000000000000   -4.7195987034967812    5.2560194223838286
   Zr   Sb   N 
     4     4    12
Direct
  0.3433887749004332  0.5240267999244185  0.9279208423905393
  0.8433887749004332  0.4759732000755816  0.0720791576094607
  0.3433890839280030  0.0240268226813828  0.4279206456514094
  0.8433890839280029  0.9759731773186172  0.5720793543485906
  0.7979691594199740  0.3375414950181088  0.4873860781676785
  0.2979691594199740  0.6624585049818912  0.5126139218323215
  0.7979696222422381  0.8375414596823425  0.9873866526837151
  0.2979696222422381  0.1624585403176575  0.0126133473162849
  0.1211820546098789  0.2316218159540905  0.8051362987209735
  0.6211820546098789  0.7683781840459095  0.1948637012790265
  0.9944369787073855  0.5586598683279238  0.8240363025210301
  0.4944369787073855  0.4413401316720761  0.1759636974789699
  0.4944367536754884  0.9413399874823210  0.6759629595964113
  0.9944367536754883  0.0586600125176791  0.3240370404035887
  0.0313406064402933  0.3987789066119978  0.3036540416085491
  0.5313406064402932  0.6012210933880021  0.6963459583914509
  0.0313412476448156  0.8987792261336515  0.8036549424591859
  0.5313412476448156  0.1012207738663486  0.1963450575408141
  0.1211817184314765  0.7316216061888009  0.3051366522659499
  0.6211817184314764  0.2683783938111991  0.6948633477340501

  0.00000000E+00  0.00000000E+00  0.00000000E+00
  0.00000000E+00  0.00000000E+00  0.00000000E+00
  0.00000000E+00  0.00000000E+00  0.00000000E+00
  0.00000000E+00  0.00000000E+00  0.00000000E+00
  0.00000000E+00  0.00000000E+00  0.00000000E+00
  0.00000000E+00  0.00000000E+00  0.00000000E+00
  0.00000000E+00  0.00000000E+00  0.00000000E+00
  0.00000000E+00  0.00000000E+00  0.00000000E+00
  0.00000000E+00  0.00000000E+00  0.00000000E+00
  0.00000000E+00  0.00000000E+00  0.00000000E+00
  0.00000000E+00  0.00000000E+00  0.00000000E+00
  0.00000000E+00  0.00000000E+00  0.00000000E+00
  0.00000000E+00  0.00000000E+00  0.00000000E+00
  0.00000000E+00  0.00000000E+00  0.00000000E+00
  0.00000000E+00  0.00000000E+00  0.00000000E+00
  0.00000000E+00  0.00000000E+00  0.00000000E+00
  0.00000000E+00  0.00000000E+00  0.00000000E+00
  0.00000000E+00  0.00000000E+00  0.00000000E+00
  0.00000000E+00  0.00000000E+00  0.00000000E+00
  0.00000000E+00  0.00000000E+00  0.00000000E+00
