Ti8 V8 N24                              
   1.0000000000000000     
    14.1579900633598648    0.0000000000000000    0.0000000000000000
     0.0000000000000000    4.9361417744539837    0.0000000000000000
     0.0000000000000000    0.0000000000000000    5.3526624340657909
   Ti   V    N 
     8     8    24
Direct
  0.7526520396064611  0.2504264143370631  0.9119963987271261
  0.2473479603935389  0.2504264143370631  0.9119963987271261
  0.7473479603935389  0.7495735856629367  0.4119963987271261
  0.2526520396064611  0.7495735856629367  0.4119963987271261
 -0.0000000000000000  0.2463510539699107  0.0808269658193123
  0.5000000000000000  0.2526676387075958  0.0903744277589235
 -0.0000000000000000  0.7473323612924040  0.5903744277589236
  0.5000000000000000  0.7536489460300893  0.5808269658193124
  0.6207677716317622  0.3007433789713079  0.5209706145323150
  0.1301744984511185  0.1959644910252881  0.4814015305254683
  0.6301744984511185  0.8040355089747120  0.9814015305254754
  0.1207677716317622  0.6992566210286920  0.0209706145323222
  0.8698255015488815  0.1959644910252881  0.4814015305254683
  0.3792322283682378  0.3007433789713079  0.5209706145323150
  0.8792322283682378  0.6992566210286920  0.0209706145323222
  0.3698255015488814  0.8040355089747120  0.9814015305254754
  0.6653711916947308  0.9290972788105472  0.6862382396642265
  0.1558504522494340  0.9146656393604872  0.6693244017361699
  0.7525799203215064  0.3934173214325977  0.5584791842665419
  0.2474200796784936  0.3934173214325977  0.5584791842665419
  0.0931766385239918  0.4157809075876845  0.8301999340475156
  0.5868969970196578  0.4235083414052315  0.8143408460441484
  0.0868969970196579  0.5764916585947684  0.3143408460441484
  0.5931766385239989  0.5842190924123154  0.3301999340475155
  0.7474200796784936  0.6065826785674022  0.0584791842665419
  0.2525799203215064  0.6065826785674022  0.0584791842665419
  0.6558504522494339  0.0853343606395127  0.1693244017361698
  0.1653711916947307  0.0709027211894528  0.1862382396642265
  0.8441495477505661  0.9146656393604872  0.6693244017361699
  0.3346288083052692  0.9290972788105472  0.6862382396642265
 -0.0000000000000000  0.1100367206153730  0.4422932523202576
  0.5000000000000000  0.1093052966247050  0.4405930550144874
  0.9068233614760011  0.4157809075876845  0.8301999340475156
  0.4131030029803421  0.4235083414052315  0.8143408460441484
  0.9131030029803422  0.5764916585947684  0.3143408460441484
  0.4068233614760082  0.5842190924123154  0.3301999340475155
 -0.0000000000000000  0.8906947033752950  0.9405930550144873
  0.5000000000000000  0.8899632793846269  0.9422932523202575
  0.8346288083052692  0.0709027211894528  0.1862382396642265
  0.3441495477505660  0.0853343606395127  0.1693244017361698

  0.00000000E+00  0.00000000E+00  0.00000000E+00
  0.00000000E+00  0.00000000E+00  0.00000000E+00
  0.00000000E+00  0.00000000E+00  0.00000000E+00
  0.00000000E+00  0.00000000E+00  0.00000000E+00
  0.00000000E+00  0.00000000E+00  0.00000000E+00
  0.00000000E+00  0.00000000E+00  0.00000000E+00
  0.00000000E+00  0.00000000E+00  0.00000000E+00
  0.00000000E+00  0.00000000E+00  0.00000000E+00
  0.00000000E+00  0.00000000E+00  0.00000000E+00
  0.00000000E+00  0.00000000E+00  0.00000000E+00
  0.00000000E+00  0.00000000E+00  0.00000000E+00
  0.00000000E+00  0.00000000E+00  0.00000000E+00
  0.00000000E+00  0.00000000E+00  0.00000000E+00
  0.00000000E+00  0.00000000E+00  0.00000000E+00
  0.00000000E+00  0.00000000E+00  0.00000000E+00
  0.00000000E+00  0.00000000E+00  0.00000000E+00
  0.00000000E+00  0.00000000E+00  0.00000000E+00
  0.00000000E+00  0.00000000E+00  0.00000000E+00
  0.00000000E+00  0.00000000E+00  0.00000000E+00
  0.00000000E+00  0.00000000E+00  0.00000000E+00
  0.00000000E+00  0.00000000E+00  0.00000000E+00
  0.00000000E+00  0.00000000E+00  0.00000000E+00
  0.00000000E+00  0.00000000E+00  0.00000000E+00
  0.00000000E+00  0.00000000E+00  0.00000000E+00
  0.00000000E+00  0.00000000E+00  0.00000000E+00
  0.00000000E+00  0.00000000E+00  0.00000000E+00
  0.00000000E+00  0.00000000E+00  0.00000000E+00
  0.00000000E+00  0.00000000E+00  0.00000000E+00
  0.00000000E+00  0.00000000E+00  0.00000000E+00
  0.00000000E+00  0.00000000E+00  0.00000000E+00
  0.00000000E+00  0.00000000E+00  0.00000000E+00
  0.00000000E+00  0.00000000E+00  0.00000000E+00
  0.00000000E+00  0.00000000E+00  0.00000000E+00
  0.00000000E+00  0.00000000E+00  0.00000000E+00
  0.00000000E+00  0.00000000E+00  0.00000000E+00
  0.00000000E+00  0.00000000E+00  0.00000000E+00
  0.00000000E+00  0.00000000E+00  0.00000000E+00
  0.00000000E+00  0.00000000E+00  0.00000000E+00
  0.00000000E+00  0.00000000E+00  0.00000000E+00
  0.00000000E+00  0.00000000E+00  0.00000000E+00
