Ga2 W2 N6                               
   1.0000000000000000     
     3.0515665623760646   -0.0042387428010510    0.0000009319705857
    -3.0447861678116750    4.7962590650314052   -0.0000006795973680
     0.0000023275958202    0.0000003992088929    7.6109040535188477
   Ga   W    N 
     2     2     6
Direct
  0.9520692356472501  0.9520780811283187  0.1604639267604588
  0.0479307520251821  0.0479219086669668  0.6604638935627641
  0.0748505217226878  0.5000042186173664  0.4104685782851559
  0.9251495826802523  0.4999958661772888  0.9104685701932049
  0.7886516497958528  0.2886583021935328  0.6605194000098880
  0.2113483116600514  0.7113416778994288  0.1605193597383272
  0.7196014709595198  0.7475198851245758  0.4902665476657231
  0.2803983708042809  0.2524800341733871  0.9902665024578119
  0.2245981538075904  0.2524374502185986  0.3307575787194744
  0.7754019508973468  0.7475625758005359  0.8307576426071959

  0.00000000E+00  0.00000000E+00  0.00000000E+00
  0.00000000E+00  0.00000000E+00  0.00000000E+00
  0.00000000E+00  0.00000000E+00  0.00000000E+00
  0.00000000E+00  0.00000000E+00  0.00000000E+00
  0.00000000E+00  0.00000000E+00  0.00000000E+00
  0.00000000E+00  0.00000000E+00  0.00000000E+00
  0.00000000E+00  0.00000000E+00  0.00000000E+00
  0.00000000E+00  0.00000000E+00  0.00000000E+00
  0.00000000E+00  0.00000000E+00  0.00000000E+00
  0.00000000E+00  0.00000000E+00  0.00000000E+00
