Hf4 V4 N12                              
   1.0000000000000000     
     7.1841935974459856    0.0000000000000000    0.0000000000000000
     0.0000000000000000    5.5226863097732437    0.0000000000000000
     0.0000000000000000    0.0000000000000000    5.1143911080514357
   Hf   V    N 
     4     4    12
Direct
  0.5000000000000000  0.6626701336192653  0.4910888004956888
  0.5000000000000000  0.1617975280109150  0.9996855296547835
  0.0000000000000000  0.8382024719890779  0.4996855296547835
  0.0000000000000000  0.3373298663807347  0.9910888004956888
  0.7602025865833895  0.2676525607820821  0.5333483773459022
  0.7397974134166105  0.7323474392179179  0.0333483773459022
  0.2397974134166105  0.2676525607820821  0.5333483773459022
  0.2602025865833895  0.7323474392179179  0.0333483773459022
  0.6874761991465022  0.4411317988402459  0.1591516740877239
  0.5000000000000000  0.2903114585355198  0.6033053268537572
  0.8125238008534978  0.5588682011597541  0.6591516740877239
  0.8103715961969726  0.0756461321954660  0.7994946193494386
  0.5000000000000000  0.8012168609161279  0.8592230014296618
  0.6896284038030274  0.9243538678045340  0.2994946193494386
  0.3125238008534978  0.4411317988402459  0.1591516740877239
  0.0000000000000000  0.1987831390838721  0.3592230014296618
  0.1874761991465022  0.5588682011597541  0.6591516740877239
  0.1896284038030274  0.0756461321954660  0.7994946193494386
  0.0000000000000000  0.7096885414644802  0.1033053268537572
  0.3103715961969726  0.9243538678045340  0.2994946193494386

  0.00000000E+00  0.00000000E+00  0.00000000E+00
  0.00000000E+00  0.00000000E+00  0.00000000E+00
  0.00000000E+00  0.00000000E+00  0.00000000E+00
  0.00000000E+00  0.00000000E+00  0.00000000E+00
  0.00000000E+00  0.00000000E+00  0.00000000E+00
  0.00000000E+00  0.00000000E+00  0.00000000E+00
  0.00000000E+00  0.00000000E+00  0.00000000E+00
  0.00000000E+00  0.00000000E+00  0.00000000E+00
  0.00000000E+00  0.00000000E+00  0.00000000E+00
  0.00000000E+00  0.00000000E+00  0.00000000E+00
  0.00000000E+00  0.00000000E+00  0.00000000E+00
  0.00000000E+00  0.00000000E+00  0.00000000E+00
  0.00000000E+00  0.00000000E+00  0.00000000E+00
  0.00000000E+00  0.00000000E+00  0.00000000E+00
  0.00000000E+00  0.00000000E+00  0.00000000E+00
  0.00000000E+00  0.00000000E+00  0.00000000E+00
  0.00000000E+00  0.00000000E+00  0.00000000E+00
  0.00000000E+00  0.00000000E+00  0.00000000E+00
  0.00000000E+00  0.00000000E+00  0.00000000E+00
  0.00000000E+00  0.00000000E+00  0.00000000E+00
