Hf4 Nb4 N12                             
   1.0000000000000000     
     3.0583924925612131   -0.0012565468579971    0.0000002816773053
    -0.0044208969393964    7.3117786936403801   -0.0000056379553542
     0.0000009044934516   -0.0000076248871061    9.8860299039080335
   Hf   Nb   N 
     4     4    12
Direct
  0.9842583354304510  0.9917699176969210  0.5097220217695995
  0.4842576645695429  0.4917700823030839  0.4902779782304008
  0.9842582431021951  0.4917701042754577  0.9903049886661719
  0.4842577568977989  0.9917698957245473  0.0096950113338281
  0.0859908278504687  0.7417862705056106  0.2499648730030444
  0.5859899614006890  0.2417862667967660  0.7500351523384827
  0.3825251721495324  0.7417537294943943  0.7500351269969557
  0.8825260385993120  0.2417537332032390  0.2499648476615173
  0.4842563148310591  0.4917696367614790  0.8424222870393548
  0.9842596851689348  0.9917703632385259  0.1575777129606452
  0.9761348586423715  0.6702408817453944  0.6083475109380480
  0.4761343973871308  0.1702398751359391  0.3916521723804243
  0.4761236368289338  0.3133143462480782  0.1083541618731359
  0.9761240051457394  0.8133133580820114  0.8916461716271417
  0.9842598440963534  0.4917696146395260  0.3424078181293214
  0.4842561559036406  0.9917703853604791  0.6575921818706787
  0.4923801413576250  0.8132991182546105  0.3916524890619522
  0.9923806026128728  0.3133001248640659  0.6083478276195757
  0.9923923631710674  0.1702256537519197  0.8916458381268642
  0.4923919948542616  0.6702266419179864  0.1083538283728583

  0.00000000E+00  0.00000000E+00  0.00000000E+00
  0.00000000E+00  0.00000000E+00  0.00000000E+00
  0.00000000E+00  0.00000000E+00  0.00000000E+00
  0.00000000E+00  0.00000000E+00  0.00000000E+00
  0.00000000E+00  0.00000000E+00  0.00000000E+00
  0.00000000E+00  0.00000000E+00  0.00000000E+00
  0.00000000E+00  0.00000000E+00  0.00000000E+00
  0.00000000E+00  0.00000000E+00  0.00000000E+00
  0.00000000E+00  0.00000000E+00  0.00000000E+00
  0.00000000E+00  0.00000000E+00  0.00000000E+00
  0.00000000E+00  0.00000000E+00  0.00000000E+00
  0.00000000E+00  0.00000000E+00  0.00000000E+00
  0.00000000E+00  0.00000000E+00  0.00000000E+00
  0.00000000E+00  0.00000000E+00  0.00000000E+00
  0.00000000E+00  0.00000000E+00  0.00000000E+00
  0.00000000E+00  0.00000000E+00  0.00000000E+00
  0.00000000E+00  0.00000000E+00  0.00000000E+00
  0.00000000E+00  0.00000000E+00  0.00000000E+00
  0.00000000E+00  0.00000000E+00  0.00000000E+00
  0.00000000E+00  0.00000000E+00  0.00000000E+00
