Zr8 Ta8 N24                             
   1.0000000000000000     
     7.6911300982298281    0.0000000000000000   -0.0170824787547696
     0.0000000000000000    7.7271933509323842    0.0000000000000000
    -7.1816349103306489    0.0000000000000000    7.6868610998172207
   Zr   Ta   N 
     8     8    24
Direct
  0.9325966300551427  0.7444623257974802  0.4588203291807605
  0.9325966300551427  0.7555376742025198  0.9588203291807605
  0.4326248865369571  0.7576166578975515  0.4736251703772835
  0.4326248865369571  0.7423833421024485  0.9736251703772835
  0.0674033699448573  0.2555376742025197  0.5411796708192395
  0.0674033699448573  0.2444623257974803  0.0411796708192395
  0.5673751134630428  0.2423833421024484  0.5263748296227165
  0.5673751134630428  0.2576166578975516  0.0263748296227165
  0.5012731759712994  0.4953968141719415  0.2499497376737344
  0.4987268240287006  0.5046031858280584  0.7500502623262656
  0.0061652189029308  0.4998717377385777  0.2473753085415663
  0.9938347810970691  0.5001282622614224  0.7526246914584337
  0.4987268240287006  0.9953968141719416  0.2500502623262656
  0.5012731759712994  0.0046031858280585  0.7499497376737344
  0.9938347810970691  0.9998717377385776  0.2526246914584337
  0.0061652189029308  0.0001282622614223  0.7473753085415663
  0.5563047693126210  0.7480411201389268  0.3465938161374095
  0.5563047693126210  0.7519588798610732  0.8465938161374096
  0.8128832850909551  0.4323853776906106  0.4987760606283656
  0.8116245231683457  0.4270098608549450  0.9964193125054273
  0.6853754705086246  0.5610530583644828  0.1833114684460112
  0.6903196687947577  0.5801018277572887  0.6877259315003684
  0.0565170134372544  0.7530020071989197  0.7097439832779211
  0.0565170134372544  0.7469979928010803  0.2097439832779210
  0.1871167149090449  0.5676146223093894  0.5012239393716343
  0.1883754768316544  0.5729901391450549  0.0035806874945727
  0.3146245294913755  0.4389469416355172  0.8166885315539888
  0.3096803312052423  0.4198981722427114  0.3122740684996315
  0.4436952306873791  0.2519588798610732  0.6534061838625904
  0.4436952306873791  0.2480411201389268  0.1534061838625905
  0.8116245231683457  0.0729901391450550  0.4964193125054274
  0.8128832850909551  0.0676146223093894  0.9987760606283657
  0.6903196687947577  0.9198981722427113  0.1877259315003685
  0.6853754705086246  0.9389469416355172  0.6833114684460112
  0.9434829865627457  0.2469979928010802  0.2902560167220790
  0.9434829865627457  0.2530020071989198  0.7902560167220789
  0.1883754768316544  0.9270098608549451  0.5035806874945727
  0.1871167149090449  0.9323853776906106  0.0012239393716344
  0.3096803312052423  0.0801018277572886  0.8122740684996316
  0.3146245294913755  0.0610530583644827  0.3166885315539889

  0.00000000E+00  0.00000000E+00  0.00000000E+00
  0.00000000E+00  0.00000000E+00  0.00000000E+00
  0.00000000E+00  0.00000000E+00  0.00000000E+00
  0.00000000E+00  0.00000000E+00  0.00000000E+00
  0.00000000E+00  0.00000000E+00  0.00000000E+00
  0.00000000E+00  0.00000000E+00  0.00000000E+00
  0.00000000E+00  0.00000000E+00  0.00000000E+00
  0.00000000E+00  0.00000000E+00  0.00000000E+00
  0.00000000E+00  0.00000000E+00  0.00000000E+00
  0.00000000E+00  0.00000000E+00  0.00000000E+00
  0.00000000E+00  0.00000000E+00  0.00000000E+00
  0.00000000E+00  0.00000000E+00  0.00000000E+00
  0.00000000E+00  0.00000000E+00  0.00000000E+00
  0.00000000E+00  0.00000000E+00  0.00000000E+00
  0.00000000E+00  0.00000000E+00  0.00000000E+00
  0.00000000E+00  0.00000000E+00  0.00000000E+00
  0.00000000E+00  0.00000000E+00  0.00000000E+00
  0.00000000E+00  0.00000000E+00  0.00000000E+00
  0.00000000E+00  0.00000000E+00  0.00000000E+00
  0.00000000E+00  0.00000000E+00  0.00000000E+00
  0.00000000E+00  0.00000000E+00  0.00000000E+00
  0.00000000E+00  0.00000000E+00  0.00000000E+00
  0.00000000E+00  0.00000000E+00  0.00000000E+00
  0.00000000E+00  0.00000000E+00  0.00000000E+00
  0.00000000E+00  0.00000000E+00  0.00000000E+00
  0.00000000E+00  0.00000000E+00  0.00000000E+00
  0.00000000E+00  0.00000000E+00  0.00000000E+00
  0.00000000E+00  0.00000000E+00  0.00000000E+00
  0.00000000E+00  0.00000000E+00  0.00000000E+00
  0.00000000E+00  0.00000000E+00  0.00000000E+00
  0.00000000E+00  0.00000000E+00  0.00000000E+00
  0.00000000E+00  0.00000000E+00  0.00000000E+00
  0.00000000E+00  0.00000000E+00  0.00000000E+00
  0.00000000E+00  0.00000000E+00  0.00000000E+00
  0.00000000E+00  0.00000000E+00  0.00000000E+00
  0.00000000E+00  0.00000000E+00  0.00000000E+00
  0.00000000E+00  0.00000000E+00  0.00000000E+00
  0.00000000E+00  0.00000000E+00  0.00000000E+00
  0.00000000E+00  0.00000000E+00  0.00000000E+00
  0.00000000E+00  0.00000000E+00  0.00000000E+00
