Sn4 Sb4 N12                             
   1.0000000000000000     
     5.5110156420624783    0.0000000064981252    0.0000000022545695
     0.0000000050465298    5.4109710638356781    0.0000000102785709
    -0.0000000001279521    0.0000000195140886    7.8268764664051691
   Sn   Sb   N 
     4     4    12
Direct
  0.5278666744016505  0.4969985866779680  0.2172169287157146
  0.0278666787204429  0.0030014129267570  0.2172169295727642
  0.4721333237143952  0.5030014173680044  0.7172169301654350
  0.9721333263733527  0.9969985866935858  0.7172169316482098
  0.9769284318557183  0.4981872367581701  0.9891651127973091
  0.4769284298994663  0.0018127645351029  0.9891651128785597
  0.0230715657165632  0.5018127604109779  0.4891651127604604
  0.5230715725526593  0.9981872387673008  0.4891651139627413
  0.9087929346403314  0.6295066498326776  0.2498497764197936
  0.6177514863264406  0.6474297941717140  0.9521390073299187
  0.7538721331313241  0.2077709012382698  0.0916681756707902
  0.4087929380635060  0.8704933470867289  0.2498497747017723
  0.2538721274500091  0.2922290985616414  0.0916681709284077
  0.1177514876491657  0.8525702068062699  0.9521390064610316
  0.0912070621659495  0.3704933447665226  0.7498497776590298
  0.7461278729025267  0.7077709012802416  0.5916681756914173
  0.8822485109728149  0.1474297911502518  0.4521390061537360
  0.5912070620286087  0.1295066560248515  0.7498497754946456
  0.3822485138563678  0.3525702076625237  0.4521390076271885
  0.2461278675786929  0.7922290972804404  0.5916681733610432

  0.00000000E+00  0.00000000E+00  0.00000000E+00
  0.00000000E+00  0.00000000E+00  0.00000000E+00
  0.00000000E+00  0.00000000E+00  0.00000000E+00
  0.00000000E+00  0.00000000E+00  0.00000000E+00
  0.00000000E+00  0.00000000E+00  0.00000000E+00
  0.00000000E+00  0.00000000E+00  0.00000000E+00
  0.00000000E+00  0.00000000E+00  0.00000000E+00
  0.00000000E+00  0.00000000E+00  0.00000000E+00
  0.00000000E+00  0.00000000E+00  0.00000000E+00
  0.00000000E+00  0.00000000E+00  0.00000000E+00
  0.00000000E+00  0.00000000E+00  0.00000000E+00
  0.00000000E+00  0.00000000E+00  0.00000000E+00
  0.00000000E+00  0.00000000E+00  0.00000000E+00
  0.00000000E+00  0.00000000E+00  0.00000000E+00
  0.00000000E+00  0.00000000E+00  0.00000000E+00
  0.00000000E+00  0.00000000E+00  0.00000000E+00
  0.00000000E+00  0.00000000E+00  0.00000000E+00
  0.00000000E+00  0.00000000E+00  0.00000000E+00
  0.00000000E+00  0.00000000E+00  0.00000000E+00
  0.00000000E+00  0.00000000E+00  0.00000000E+00
