Ta4 Sn4 N12                             
   1.0000000000000000     
     5.4760401557774054    0.0000000000000000    0.0000000000000000
     0.0000000000000000    5.3105838701590908    0.0000000000000000
     0.0000000000000000    0.0000000000000000    7.9907492242152767
   Ta   Sn   N 
     4     4    12
Direct
  0.0126687451660885  0.5010416686212551  0.0193293090132585
  0.5126687451660885  0.9989583313787449  0.0193293090132585
  0.9873312548339115  0.4989583313787449  0.5193293090132585
  0.4873312548339115  0.0010416686212551  0.5193293090132585
  0.5309174951988140  0.4914759012034509  0.2819365943246339
  0.0309174951988140  0.0085240987965491  0.2819365943246339
  0.4690825048011860  0.5085240987965491  0.7819365943246339
  0.9690825048011860  0.9914759012034509  0.7819365943246339
  0.9223283747321744  0.6288619693072732  0.2410168503945656
  0.7459348517258135  0.7060284500570475  0.9090316395324649
  0.8725967459657511  0.1582078940639846  0.0487056067350977
  0.4223283747321744  0.8711380306927268  0.2410168503945656
  0.3725967459657511  0.3417921059360154  0.0487056067350977
  0.2459348517258135  0.7939715499429525  0.9090316395324649
  0.0776716252678256  0.3711380306927268  0.7410168503945656
  0.6274032540342489  0.6582078940639846  0.5487056067350977
  0.7540651482741865  0.2060284500570475  0.4090316395324649
  0.5776716252678256  0.1288619693072732  0.7410168503945656
  0.2540651482741865  0.2939715499429525  0.4090316395324649
  0.1274032540342489  0.8417921059360154  0.5487056067350977

  0.00000000E+00  0.00000000E+00  0.00000000E+00
  0.00000000E+00  0.00000000E+00  0.00000000E+00
  0.00000000E+00  0.00000000E+00  0.00000000E+00
  0.00000000E+00  0.00000000E+00  0.00000000E+00
  0.00000000E+00  0.00000000E+00  0.00000000E+00
  0.00000000E+00  0.00000000E+00  0.00000000E+00
  0.00000000E+00  0.00000000E+00  0.00000000E+00
  0.00000000E+00  0.00000000E+00  0.00000000E+00
  0.00000000E+00  0.00000000E+00  0.00000000E+00
  0.00000000E+00  0.00000000E+00  0.00000000E+00
  0.00000000E+00  0.00000000E+00  0.00000000E+00
  0.00000000E+00  0.00000000E+00  0.00000000E+00
  0.00000000E+00  0.00000000E+00  0.00000000E+00
  0.00000000E+00  0.00000000E+00  0.00000000E+00
  0.00000000E+00  0.00000000E+00  0.00000000E+00
  0.00000000E+00  0.00000000E+00  0.00000000E+00
  0.00000000E+00  0.00000000E+00  0.00000000E+00
  0.00000000E+00  0.00000000E+00  0.00000000E+00
  0.00000000E+00  0.00000000E+00  0.00000000E+00
  0.00000000E+00  0.00000000E+00  0.00000000E+00
