In4 Mo4 N12                             
   1.0000000000000000     
     7.6447674871721514    0.0000000000000000    0.0000000000000000
     0.0000000000000000    5.4973409027179629    0.0000000000000000
     0.0000000000000000    0.0000000000000000    5.6218594723989437
   In   Mo   N 
     4     4    12
Direct
  0.0000000000000000  0.2758436585570010  0.9538407059566509
  0.0000000000000000  0.7241563414429990  0.4538407059566509
  0.5000000000000000  0.2484057133393662  0.0368271829015683
  0.5000000000000000  0.7515942866606338  0.5368271829015683
  0.7479843988553583  0.2535274666946208  0.4535753702644101
  0.2520156011446417  0.7464725333053792  0.9535753702644101
  0.7479843988553583  0.7464725333053792  0.9535753702644101
  0.2520156011446417  0.2535274666946208  0.4535753702644101
  0.8065586896532437  0.9067239768739768  0.6897786423909125
  0.1934413103467563  0.0932760231260232  0.1897786423909125
  0.8065586896532437  0.0932760231260232  0.1897786423909125
  0.1934413103467563  0.9067239768739768  0.6897786423909125
  0.0000000000000000  0.3354445032224405  0.5761165693600034
  0.0000000000000000  0.6645554967775595  0.0761165693600034
  0.6908861167558982  0.4554694097087264  0.8332229068544876
  0.3091138832441018  0.5445305902912736  0.3332229068544876
  0.6908861167558982  0.5445305902912736  0.3332229068544876
  0.3091138832441018  0.4554694097087264  0.8332229068544876
  0.5000000000000000  0.1352642765527747  0.4800767027621475
  0.5000000000000000  0.8647357234472253  0.9800767027621475

  0.00000000E+00  0.00000000E+00  0.00000000E+00
  0.00000000E+00  0.00000000E+00  0.00000000E+00
  0.00000000E+00  0.00000000E+00  0.00000000E+00
  0.00000000E+00  0.00000000E+00  0.00000000E+00
  0.00000000E+00  0.00000000E+00  0.00000000E+00
  0.00000000E+00  0.00000000E+00  0.00000000E+00
  0.00000000E+00  0.00000000E+00  0.00000000E+00
  0.00000000E+00  0.00000000E+00  0.00000000E+00
  0.00000000E+00  0.00000000E+00  0.00000000E+00
  0.00000000E+00  0.00000000E+00  0.00000000E+00
  0.00000000E+00  0.00000000E+00  0.00000000E+00
  0.00000000E+00  0.00000000E+00  0.00000000E+00
  0.00000000E+00  0.00000000E+00  0.00000000E+00
  0.00000000E+00  0.00000000E+00  0.00000000E+00
  0.00000000E+00  0.00000000E+00  0.00000000E+00
  0.00000000E+00  0.00000000E+00  0.00000000E+00
  0.00000000E+00  0.00000000E+00  0.00000000E+00
  0.00000000E+00  0.00000000E+00  0.00000000E+00
  0.00000000E+00  0.00000000E+00  0.00000000E+00
  0.00000000E+00  0.00000000E+00  0.00000000E+00
