Zr4 Sb4 N12                             
   1.0000000000000000     
     5.2763354321041849   -0.0000000031174742    0.0000000126229659
    -0.0000000012358323    5.5866893945939919   -0.0000000043915410
     0.0000000138519988    0.0000000020152317    7.8341085253005751
   Zr   Sb   N 
     4     4    12
Direct
  0.2285621771164017  0.9354943635823929  0.2439885219074753
  0.7714378223210616  0.4354943631220252  0.2560114783314944
  0.2714378218785924  0.0645056401917827  0.7439885203438905
  0.7285621770314421  0.5645056396677148  0.7560114797975714
  0.2425222493430823  0.4993772606397044  0.9981462479269894
  0.7425222551838573  0.0006227381539148  0.0018537514626829
  0.2574777446701475  0.5006227370076601  0.4981462489409694
  0.7574777501767969  0.9993772620513965  0.5018537514037931
  0.9144616000732597  0.6795863096044954  0.0627228307861358
  0.3928433038156598  0.5631177362161637  0.2461142418303268
  0.4144616048974683  0.8204136875147086  0.9372771643328335
  0.5456691036797494  0.2989995945165091  0.9172031239648817
  0.6071566955921028  0.0631177365114084  0.2538857578238805
  0.0456691021850375  0.2010004051192738  0.0827968773820302
  0.9543308987083776  0.7010004057560906  0.4172031226659954
  0.1071566945958864  0.4368822640830103  0.7461142435059500
  0.4543308970399806  0.7989995946884534  0.5827968758832043
  0.5855383959562914  0.3204136891226170  0.5627228342666726
  0.8928433050953544  0.9368822643886858  0.7538857570710036
  0.0855384006394644  0.1795863080619853  0.4372771703722336

  0.00000000E+00  0.00000000E+00  0.00000000E+00
  0.00000000E+00  0.00000000E+00  0.00000000E+00
  0.00000000E+00  0.00000000E+00  0.00000000E+00
  0.00000000E+00  0.00000000E+00  0.00000000E+00
  0.00000000E+00  0.00000000E+00  0.00000000E+00
  0.00000000E+00  0.00000000E+00  0.00000000E+00
  0.00000000E+00  0.00000000E+00  0.00000000E+00
  0.00000000E+00  0.00000000E+00  0.00000000E+00
  0.00000000E+00  0.00000000E+00  0.00000000E+00
  0.00000000E+00  0.00000000E+00  0.00000000E+00
  0.00000000E+00  0.00000000E+00  0.00000000E+00
  0.00000000E+00  0.00000000E+00  0.00000000E+00
  0.00000000E+00  0.00000000E+00  0.00000000E+00
  0.00000000E+00  0.00000000E+00  0.00000000E+00
  0.00000000E+00  0.00000000E+00  0.00000000E+00
  0.00000000E+00  0.00000000E+00  0.00000000E+00
  0.00000000E+00  0.00000000E+00  0.00000000E+00
  0.00000000E+00  0.00000000E+00  0.00000000E+00
  0.00000000E+00  0.00000000E+00  0.00000000E+00
  0.00000000E+00  0.00000000E+00  0.00000000E+00
