Ti2 V2 N6                               
   1.0000000000000000     
     2.8515290716039545    0.0011180148088405    0.0000000000000000
    -1.4274834244475141    4.5831173631959254    0.0000000000000000
     0.0000000000000000    0.0000000000000000    6.9047365428902436
   Ti   V    N 
     2     2     6
Direct
  0.7607087101845370  0.0212031277758709  0.4200844137715917
  0.2392912898154630  0.9787968722241291  0.9200844137715917
  0.3811590566593201  0.4999578272563608  0.6700728124624681
  0.6188409433406798  0.5000421727436321  0.1700728124624679
  0.4107242331764895  0.3213783531815210  0.4200798180425561
  0.5892757668235103  0.6786216468184790  0.9200798180425561
  0.1382030478798022  0.7812532971057183  0.5982112985671331
  0.8617969521201979  0.2187467028942816  0.0982112985671331
  0.8568775776615769  0.2186559162630186  0.7419136571562481
  0.1431224223384230  0.7813440837369815  0.2419136571562482

  0.00000000E+00  0.00000000E+00  0.00000000E+00
  0.00000000E+00  0.00000000E+00  0.00000000E+00
  0.00000000E+00  0.00000000E+00  0.00000000E+00
  0.00000000E+00  0.00000000E+00  0.00000000E+00
  0.00000000E+00  0.00000000E+00  0.00000000E+00
  0.00000000E+00  0.00000000E+00  0.00000000E+00
  0.00000000E+00  0.00000000E+00  0.00000000E+00
  0.00000000E+00  0.00000000E+00  0.00000000E+00
  0.00000000E+00  0.00000000E+00  0.00000000E+00
  0.00000000E+00  0.00000000E+00  0.00000000E+00
