Nb4 Sn4 N12                             
   1.0000000000000000     
     3.1970342993762544   -0.0000730231018261    0.0000250650393547
    -1.5986758874614027    6.8126014941261088   -0.0020330214365194
     0.0000824169106383    0.0031080913755932   10.5129433750132293
   Nb   Sn   N 
     4     4    12
Direct
  0.0849550561774350  0.1698248964093310  0.4636466137421564
  0.0849550562098216  0.1698248964207494  0.9636466137571560
  0.9887639266733856  0.9776370196328088  0.2136466953875100
  0.9887639266807184  0.9776370196559938  0.7136466953952123
  0.3565030882660380  0.7132412641795582  0.9878002507607277
  0.3565030879431674  0.7132412641725523  0.4878002508140398
  0.7172043964550596  0.4342206583190347  0.7378001391657847
  0.7172043964037158  0.4342206584200810  0.2378001391886286
  0.8439986400656139  0.6883605242231070  0.6280088229863523
  0.8439986402803399  0.6883605241964972  0.1280088229949214
  0.9245763316701883  0.8493509626950129  0.3779204893087496
  0.9245763318580700  0.8493509627112346  0.8779204892977717
  0.1491813211145683  0.2981186785773744  0.1279183153274417
  0.1491813210950141  0.2981186786037497  0.6279183153211392
  0.5031410716187850  0.0063760292160069  0.5702723001056924
  0.5031410716559677  0.0063760291835422  0.0702723001117533
  0.5706205834472513  0.1410817843935988  0.8202713024647750
  0.5706205834535041  0.1410817843929948  0.3202713024720012
  0.2297135844499323  0.4591011822934092  0.8780080706926654
  0.2297135844814449  0.4591011823033639  0.3780080707055262

  0.00000000E+00  0.00000000E+00  0.00000000E+00
  0.00000000E+00  0.00000000E+00  0.00000000E+00
  0.00000000E+00  0.00000000E+00  0.00000000E+00
  0.00000000E+00  0.00000000E+00  0.00000000E+00
  0.00000000E+00  0.00000000E+00  0.00000000E+00
  0.00000000E+00  0.00000000E+00  0.00000000E+00
  0.00000000E+00  0.00000000E+00  0.00000000E+00
  0.00000000E+00  0.00000000E+00  0.00000000E+00
  0.00000000E+00  0.00000000E+00  0.00000000E+00
  0.00000000E+00  0.00000000E+00  0.00000000E+00
  0.00000000E+00  0.00000000E+00  0.00000000E+00
  0.00000000E+00  0.00000000E+00  0.00000000E+00
  0.00000000E+00  0.00000000E+00  0.00000000E+00
  0.00000000E+00  0.00000000E+00  0.00000000E+00
  0.00000000E+00  0.00000000E+00  0.00000000E+00
  0.00000000E+00  0.00000000E+00  0.00000000E+00
  0.00000000E+00  0.00000000E+00  0.00000000E+00
  0.00000000E+00  0.00000000E+00  0.00000000E+00
  0.00000000E+00  0.00000000E+00  0.00000000E+00
  0.00000000E+00  0.00000000E+00  0.00000000E+00
