Ga2 Mo2 N6                              
   1.0000000000000000     
     4.7828766887170220    0.0001086238550643    0.0000000000000000
    -0.0000644907031607    3.0702849158607179    0.0000000000000000
     0.0000000000000000    0.0000000000000000    7.6061786468089370
   Ga   Mo   N 
     2     2     6
Direct
  0.9481259711747557  0.9999426935668383  0.0046068280993692
  0.0518740288252443  0.0000573064331617  0.5046068280993692
  0.5000579439346190  0.5907918898457950  0.7545489456489016
  0.4999420560653810  0.4092081101541979  0.2545489456489016
  0.2531431533274688  0.0347468267298473  0.1740287174396247
  0.7468568466725312  0.9652531732701527  0.6740287174396247
  0.2530471305507860  0.9647011830974078  0.8351446229183119
  0.7469528694492139  0.0352988169025922  0.3351446229183120
  0.7137138607019455  0.4999379988100220  0.0045518858937835
  0.2862861392980545  0.5000620011899780  0.5045518858937835

  0.00000000E+00  0.00000000E+00  0.00000000E+00
  0.00000000E+00  0.00000000E+00  0.00000000E+00
  0.00000000E+00  0.00000000E+00  0.00000000E+00
  0.00000000E+00  0.00000000E+00  0.00000000E+00
  0.00000000E+00  0.00000000E+00  0.00000000E+00
  0.00000000E+00  0.00000000E+00  0.00000000E+00
  0.00000000E+00  0.00000000E+00  0.00000000E+00
  0.00000000E+00  0.00000000E+00  0.00000000E+00
  0.00000000E+00  0.00000000E+00  0.00000000E+00
  0.00000000E+00  0.00000000E+00  0.00000000E+00
