La2 W2 N6                               
   1.0000000000000000     
     4.9009147150816297    2.8211510077697990   -0.0320457996127049
    -4.9009147150816306    2.8211510077698008    0.0320457996127047
    -3.2262781605023840    0.0000000000000000    4.6362389433835363
   La   W    N 
     2     2     6
Direct
  0.5073059835279139  0.9920848982590726  0.7465078125367839
  0.0079151017409202  0.4926940164720861  0.2465078125367839
  0.2554539268421578  0.2450795229940184  0.9984556682688250
  0.7549204770059816  0.7445460731578422  0.4984556682688250
  0.5308912233142848  0.5251119005230436  0.1787170551174881
  0.4748880994769564  0.4691087766857152  0.6787170551174881
  0.9785956794276984  0.4274014790474823  0.7281581751786419
  0.0241183724132412  0.9241781347912834  0.7795689138535096
  0.0758218652087166  0.9758816275867588  0.2795689138535096
  0.5725985209525177  0.0214043205723016  0.2281581751786419

  0.00000000E+00  0.00000000E+00  0.00000000E+00
  0.00000000E+00  0.00000000E+00  0.00000000E+00
  0.00000000E+00  0.00000000E+00  0.00000000E+00
  0.00000000E+00  0.00000000E+00  0.00000000E+00
  0.00000000E+00  0.00000000E+00  0.00000000E+00
  0.00000000E+00  0.00000000E+00  0.00000000E+00
  0.00000000E+00  0.00000000E+00  0.00000000E+00
  0.00000000E+00  0.00000000E+00  0.00000000E+00
  0.00000000E+00  0.00000000E+00  0.00000000E+00
  0.00000000E+00  0.00000000E+00  0.00000000E+00
