In4 W4 N12                              
   1.0000000000000000     
     7.6702955940286195    0.0000000089983442   -0.0000353564998302
    -0.0000000020319715    5.4336513919142044    0.0000000526187722
    -0.0006920022856279    0.0000000436828444    5.5621646526267758
   In   W    N 
     4     4    12
Direct
  0.7501715909454845  0.2381555684783478  0.9551779536192839
  0.7501715896774854  0.7618444508175415  0.4551779573209274
  0.2501657675627840  0.2500178309199512  0.0357685046691145
  0.2501657677226206  0.7499821572186676  0.5357685062171100
  0.0012620397353373  0.2443641904440028  0.4635847281013596
  0.0012620384073116  0.7556358136286647  0.9635847269653368
  0.4989628530451569  0.2442598371819855  0.4633344090886098
  0.4989628495242684  0.7557401658324494  0.9633344076169692
  0.9444372473739762  0.5806634128349515  0.6930187861476398
  0.7499020435159807  0.1592185936250416  0.5709129397792765
  0.0563568965459211  0.0540257698700302  0.8239971331409919
  0.0563568979743820  0.9459742231105395  0.3239971327798443
  0.7499020427219492  0.8407814118980852  0.0709129386722083
  0.9444372502229470  0.4193365870127153  0.1930187880853111
  0.5554268463226890  0.5807942023751735  0.6926271631931513
  0.2499665848742296  0.3604467367130511  0.4777644262035778
  0.4434471333540984  0.0538590937574739  0.8234889522649098
  0.4434471314602462  0.9461408987902686  0.3234889524104361
  0.2499665843873160  0.6395532574429126  0.9777644273339163
  0.5554268446258419  0.4192057980481252  0.1926271663900465

  0.00000000E+00  0.00000000E+00  0.00000000E+00
  0.00000000E+00  0.00000000E+00  0.00000000E+00
  0.00000000E+00  0.00000000E+00  0.00000000E+00
  0.00000000E+00  0.00000000E+00  0.00000000E+00
  0.00000000E+00  0.00000000E+00  0.00000000E+00
  0.00000000E+00  0.00000000E+00  0.00000000E+00
  0.00000000E+00  0.00000000E+00  0.00000000E+00
  0.00000000E+00  0.00000000E+00  0.00000000E+00
  0.00000000E+00  0.00000000E+00  0.00000000E+00
  0.00000000E+00  0.00000000E+00  0.00000000E+00
  0.00000000E+00  0.00000000E+00  0.00000000E+00
  0.00000000E+00  0.00000000E+00  0.00000000E+00
  0.00000000E+00  0.00000000E+00  0.00000000E+00
  0.00000000E+00  0.00000000E+00  0.00000000E+00
  0.00000000E+00  0.00000000E+00  0.00000000E+00
  0.00000000E+00  0.00000000E+00  0.00000000E+00
  0.00000000E+00  0.00000000E+00  0.00000000E+00
  0.00000000E+00  0.00000000E+00  0.00000000E+00
  0.00000000E+00  0.00000000E+00  0.00000000E+00
  0.00000000E+00  0.00000000E+00  0.00000000E+00
