Sn2 Sb2 N6                              
   1.0000000000000000     
     5.3889476500027502    0.0000000110641248    0.0000000472846243
     2.6944733318168597    4.6669647015195421    0.0000000519920829
     2.6944694113780616    1.5556519624209735    4.7730634204117424
   Sn   Sb   N 
     2     2     6
Direct
  0.8798466750381093  0.8798466750381093  0.3604599748856792
  0.3798494902130899  0.3798494902130899  0.8604515293607231
  0.5946720943777785  0.5946720943777785  0.2159827168666604
  0.0946708277495013  0.0946708277495013  0.7159875167514963
  0.2025676869496160  0.4778304786251687  0.5276352275042799
  0.4778304786251687  0.7919666069209355  0.5276352275042799
  0.7919666069209355  0.2025676869496160  0.5276352275042799
  0.9778333362917673  0.7025655576224931  0.0276368598741949
  0.7025655576224931  0.2919642462115375  0.0276368598741949
  0.2919642462115375  0.9778333362917673  0.0276368598741949

  0.00000000E+00  0.00000000E+00  0.00000000E+00
  0.00000000E+00  0.00000000E+00  0.00000000E+00
  0.00000000E+00  0.00000000E+00  0.00000000E+00
  0.00000000E+00  0.00000000E+00  0.00000000E+00
  0.00000000E+00  0.00000000E+00  0.00000000E+00
  0.00000000E+00  0.00000000E+00  0.00000000E+00
  0.00000000E+00  0.00000000E+00  0.00000000E+00
  0.00000000E+00  0.00000000E+00  0.00000000E+00
  0.00000000E+00  0.00000000E+00  0.00000000E+00
  0.00000000E+00  0.00000000E+00  0.00000000E+00
