Y8 W8 N24                               
   1.0000000000000000     
     7.9082022755556185    0.0000000000000000   -0.0505596798452193
     0.0000000000000000    7.6254054472950399    0.0000000000000000
     0.2671045857987398    0.0000000000000000    7.9050252498679940
   Y    W    N 
     8     8    24
Direct
  0.2655002348713848  0.4999759107901819  0.9274006395964718
  0.7655002348713847  0.5000240892098180  0.4274006395964718
  0.2660613465087565  0.4999907603895914  0.4197057790673681
  0.7660613465087566  0.5000092396104086  0.9197057790673681
  0.7086391960391585  0.9999935763712857  0.3623515136913943
  0.2086391960391585  0.0000064236287143  0.8623515136913943
  0.7009973426132234  0.9999875096768506  0.8628684159634118
  0.2009973426132235  0.0000124903231494  0.3628684159634118
  0.4770417722902764  0.7424724859400045  0.1628241885491605
  0.9770417722902764  0.2575275140599955  0.6628241885491605
  0.4655359167297777  0.2424814456107778  0.6513296683647117
  0.9655359167297778  0.7575185543892221  0.1513296683647047
  0.9655040381870941  0.2425596439562566  0.1513735478907528
  0.4655040381870941  0.7574403560437434  0.6513735478907527
  0.9770403743872450  0.7425524945554738  0.6628425888276709
  0.4770403743872449  0.2574475054445262  0.1628425888276709
  0.5440947405359797  0.2979909445160164  0.3824188177742389
  0.0440937405359823  0.7020090554839836  0.8824188177742389
  0.0570813807979336  0.9999806268288975  0.1045201858190223
  0.5570813807979336  0.0000193731711024  0.6045201858190151
  0.4411235295569713  0.2032116031965336  0.8813721525829092
  0.9411235295569713  0.7967893968034638  0.3813721525829093
  0.7458884729450732  0.2020495810161093  0.0841823883176278
  0.2458884729450732  0.7979504189838906  0.5841823883176278
  0.2469181552918009  0.2967598468350671  0.1871721934767389
  0.7469181552918011  0.7032401531649328  0.6871721934767390
  0.4386680030194604  0.5000211824723633  0.6649555376810673
  0.9386680030194603  0.4999788175276366  0.1649555376810673
  0.4635105755433081  0.9999939923402006  0.1897213988953903
  0.9635105755433081  0.0000060076597995  0.6897213988953903
  0.2458865788690740  0.2021083731930267  0.5841800683821601
  0.7458865788690741  0.7978916268069733  0.0841800683821601
  0.2469236571028393  0.7031783495175720  0.1871537058924085
  0.7469236571028464  0.2968216504824281  0.6871537058924084
  0.0238698273247838  0.5000105952999521  0.5712893673892102
  0.5238698273247837  0.4999894047000479  0.0712893673892102
  0.4411175030336418  0.7968287852321846  0.8813878545083451
  0.9411175030336418  0.2031712147678154  0.3813878545083451
  0.0440823543522015  0.2979596396152762  0.8824279873299921
  0.5440823543522015  0.7020403603847238  0.3824279873299921

  0.00000000E+00  0.00000000E+00  0.00000000E+00
  0.00000000E+00  0.00000000E+00  0.00000000E+00
  0.00000000E+00  0.00000000E+00  0.00000000E+00
  0.00000000E+00  0.00000000E+00  0.00000000E+00
  0.00000000E+00  0.00000000E+00  0.00000000E+00
  0.00000000E+00  0.00000000E+00  0.00000000E+00
  0.00000000E+00  0.00000000E+00  0.00000000E+00
  0.00000000E+00  0.00000000E+00  0.00000000E+00
  0.00000000E+00  0.00000000E+00  0.00000000E+00
  0.00000000E+00  0.00000000E+00  0.00000000E+00
  0.00000000E+00  0.00000000E+00  0.00000000E+00
  0.00000000E+00  0.00000000E+00  0.00000000E+00
  0.00000000E+00  0.00000000E+00  0.00000000E+00
  0.00000000E+00  0.00000000E+00  0.00000000E+00
  0.00000000E+00  0.00000000E+00  0.00000000E+00
  0.00000000E+00  0.00000000E+00  0.00000000E+00
  0.00000000E+00  0.00000000E+00  0.00000000E+00
  0.00000000E+00  0.00000000E+00  0.00000000E+00
  0.00000000E+00  0.00000000E+00  0.00000000E+00
  0.00000000E+00  0.00000000E+00  0.00000000E+00
  0.00000000E+00  0.00000000E+00  0.00000000E+00
  0.00000000E+00  0.00000000E+00  0.00000000E+00
  0.00000000E+00  0.00000000E+00  0.00000000E+00
  0.00000000E+00  0.00000000E+00  0.00000000E+00
  0.00000000E+00  0.00000000E+00  0.00000000E+00
  0.00000000E+00  0.00000000E+00  0.00000000E+00
  0.00000000E+00  0.00000000E+00  0.00000000E+00
  0.00000000E+00  0.00000000E+00  0.00000000E+00
  0.00000000E+00  0.00000000E+00  0.00000000E+00
  0.00000000E+00  0.00000000E+00  0.00000000E+00
  0.00000000E+00  0.00000000E+00  0.00000000E+00
  0.00000000E+00  0.00000000E+00  0.00000000E+00
  0.00000000E+00  0.00000000E+00  0.00000000E+00
  0.00000000E+00  0.00000000E+00  0.00000000E+00
  0.00000000E+00  0.00000000E+00  0.00000000E+00
  0.00000000E+00  0.00000000E+00  0.00000000E+00
  0.00000000E+00  0.00000000E+00  0.00000000E+00
  0.00000000E+00  0.00000000E+00  0.00000000E+00
  0.00000000E+00  0.00000000E+00  0.00000000E+00
  0.00000000E+00  0.00000000E+00  0.00000000E+00
