Zr8 Nb8 N24                             
   1.0000000000000000     
     7.5708174418619327    0.0000000472462852   -0.0350259183488289
     0.0000000565927586    8.0391928058029407    0.0000004898378017
    -7.0916240242509474    0.0000004320258106    7.7225036984661397
   Zr   Nb   N 
     8     8    24
Direct
  0.9384258008861970  0.2361244634155590  0.4571313632774933
  0.9384258906213101  0.2638755097880934  0.9571314039931924
  0.4334251907536691  0.2790928607206732  0.9810548300514816
  0.4334251844484305  0.2209071159036774  0.4810547833253345
  0.0615741037489815  0.7361244911063444  0.0428685936521422
  0.0615741936499767  0.7638755361146066  0.5428686353671519
  0.5665748207264262  0.7790928836540553  0.5189452179171861
  0.5665748147484241  0.7209071400207471  0.0189451716379119
  0.4895442106284063  0.9949332548533140  0.2253264208357810
  0.5104557956962331  0.0050667452406054  0.7746735832005567
  0.0067204789116944  0.0191889386272230  0.7443606151240196
  0.9932795149041416  0.9808110536773584  0.2556393817942311
  0.5104558749601891  0.4949330561153927  0.2746736630275786
  0.4895441292831061  0.5050669428137445  0.7253263394899976
  0.9932795255201744  0.5191889770431004  0.7556393849404214
  0.0067204686213560  0.4808110309746860  0.2443606115003320
  0.7014235480796902  0.1024308404335969  0.1941247415464962
  0.6863059478468344  0.0446801768585437  0.6875739739062523
  0.5668879022735267  0.2710346569009082  0.3583827400236965
  0.5668879354641984  0.2289654916286603  0.8583827777032366
  0.8112724561228514  0.9479974229364618  0.4954178495976218
  0.7984892655067897  0.8970190665902379  0.9986233779728516
  0.3136940514115938  0.9553198249477995  0.3124260257432984
  0.2985764520862065  0.8975691606500650  0.8058752580347983
  0.0626909442492058  0.2568021161680378  0.2084133958061385
  0.0626909694920374  0.2431979294538735  0.7084134158733918
  0.2015107332029445  0.1029809348808464  0.0013766212901360
  0.1887275456995704  0.0520025783001477  0.5045821513118128
  0.6863059445722397  0.4553198507574462  0.1875739572981197
  0.7014235470904742  0.3975691543305170  0.6941247450800518
  0.4331120632992012  0.7710345075513174  0.1416172217044338
  0.4331120964448201  0.7289653430970711  0.6416172585988595
  0.7984892586601380  0.6029809129243260  0.4986233693698749
  0.8112724751607732  0.5520025523681458  0.9954178674250844
  0.2985764538394983  0.6024308446959119  0.3058752557680908
  0.3136940554783409  0.5446801480045275  0.8124260429733032
  0.9373090311860428  0.7568020757859706  0.2915865848881063
  0.9373090572853929  0.7431978795689778  0.7915866046727619
  0.1887275261041468  0.4479974470359827  0.0045821340304370
  0.2015107413347956  0.3970190840614962  0.5013766302463485

  0.00000000E+00  0.00000000E+00  0.00000000E+00
  0.00000000E+00  0.00000000E+00  0.00000000E+00
  0.00000000E+00  0.00000000E+00  0.00000000E+00
  0.00000000E+00  0.00000000E+00  0.00000000E+00
  0.00000000E+00  0.00000000E+00  0.00000000E+00
  0.00000000E+00  0.00000000E+00  0.00000000E+00
  0.00000000E+00  0.00000000E+00  0.00000000E+00
  0.00000000E+00  0.00000000E+00  0.00000000E+00
  0.00000000E+00  0.00000000E+00  0.00000000E+00
  0.00000000E+00  0.00000000E+00  0.00000000E+00
  0.00000000E+00  0.00000000E+00  0.00000000E+00
  0.00000000E+00  0.00000000E+00  0.00000000E+00
  0.00000000E+00  0.00000000E+00  0.00000000E+00
  0.00000000E+00  0.00000000E+00  0.00000000E+00
  0.00000000E+00  0.00000000E+00  0.00000000E+00
  0.00000000E+00  0.00000000E+00  0.00000000E+00
  0.00000000E+00  0.00000000E+00  0.00000000E+00
  0.00000000E+00  0.00000000E+00  0.00000000E+00
  0.00000000E+00  0.00000000E+00  0.00000000E+00
  0.00000000E+00  0.00000000E+00  0.00000000E+00
  0.00000000E+00  0.00000000E+00  0.00000000E+00
  0.00000000E+00  0.00000000E+00  0.00000000E+00
  0.00000000E+00  0.00000000E+00  0.00000000E+00
  0.00000000E+00  0.00000000E+00  0.00000000E+00
  0.00000000E+00  0.00000000E+00  0.00000000E+00
  0.00000000E+00  0.00000000E+00  0.00000000E+00
  0.00000000E+00  0.00000000E+00  0.00000000E+00
  0.00000000E+00  0.00000000E+00  0.00000000E+00
  0.00000000E+00  0.00000000E+00  0.00000000E+00
  0.00000000E+00  0.00000000E+00  0.00000000E+00
  0.00000000E+00  0.00000000E+00  0.00000000E+00
  0.00000000E+00  0.00000000E+00  0.00000000E+00
  0.00000000E+00  0.00000000E+00  0.00000000E+00
  0.00000000E+00  0.00000000E+00  0.00000000E+00
  0.00000000E+00  0.00000000E+00  0.00000000E+00
  0.00000000E+00  0.00000000E+00  0.00000000E+00
  0.00000000E+00  0.00000000E+00  0.00000000E+00
  0.00000000E+00  0.00000000E+00  0.00000000E+00
  0.00000000E+00  0.00000000E+00  0.00000000E+00
  0.00000000E+00  0.00000000E+00  0.00000000E+00
