Zr2 Nb2 N6                              
   1.0000000000000000     
     3.0823098676994238    0.0006720999034854    0.0000000000000000
    -1.5423182783997824    4.9734882742668578    0.0000000000000000
     0.0000000000000000    0.0000000000000000    7.3392243841734475
   Zr   Nb   N 
     2     2     6
Direct
  0.7603842189161166  0.5206110818526151  0.2118157203399039
  0.2396157810838835  0.4793889181473850  0.7118157203399039
  0.5947464136026506  0.0000186363300318  0.4618232389151228
  0.4052535863973495  0.9999813636699683  0.9618232389151229
  0.1388106552431295  0.2802500829639678  0.0323597342964930
  0.8611893447568706  0.7197499170360322  0.5323597342964931
  0.1416016395497102  0.2802929072884522  0.3913534745717842
  0.8583983604502898  0.7197070927115478  0.8913534745717843
  0.5913755360074004  0.1828823304401637  0.7118368318766923
  0.4086244639925996  0.8171176695598363  0.2118368318766924

  0.00000000E+00  0.00000000E+00  0.00000000E+00
  0.00000000E+00  0.00000000E+00  0.00000000E+00
  0.00000000E+00  0.00000000E+00  0.00000000E+00
  0.00000000E+00  0.00000000E+00  0.00000000E+00
  0.00000000E+00  0.00000000E+00  0.00000000E+00
  0.00000000E+00  0.00000000E+00  0.00000000E+00
  0.00000000E+00  0.00000000E+00  0.00000000E+00
  0.00000000E+00  0.00000000E+00  0.00000000E+00
  0.00000000E+00  0.00000000E+00  0.00000000E+00
  0.00000000E+00  0.00000000E+00  0.00000000E+00
