La2 Mo2 N6                              
   1.0000000000000000     
     5.6802203598230001    0.0335301606349830    0.0237607028865301
     2.8427830780029133    4.9177839023555725    0.0237608297484014
     2.8427800140054371    1.6514711976432466    4.6321856073586192
   La   Mo   N 
     2     2     6
Direct
  0.1954240985201527  0.1954253901659013  0.1954242223283597
  0.6954257543499476  0.6954239820865087  0.6954238765896142
  0.4488783978032163  0.4488768526473098  0.4488774780101148
  0.9488776728766386  0.9488788467250139  0.9488765148552750
  0.2232080870077358  0.6749920867852572  0.1200291084297314
  0.6749888085283138  0.1200296225204443  0.2232092378564829
  0.1200279542435221  0.2232097591329312  0.6749916534393805
  0.7232100348498042  0.6200281016251408  0.1749915000900405
  0.6200295485950554  0.1749891131114042  0.7232091832938419
  0.1749916432255951  0.7232082452000842  0.6200292251071614

  0.00000000E+00  0.00000000E+00  0.00000000E+00
  0.00000000E+00  0.00000000E+00  0.00000000E+00
  0.00000000E+00  0.00000000E+00  0.00000000E+00
  0.00000000E+00  0.00000000E+00  0.00000000E+00
  0.00000000E+00  0.00000000E+00  0.00000000E+00
  0.00000000E+00  0.00000000E+00  0.00000000E+00
  0.00000000E+00  0.00000000E+00  0.00000000E+00
  0.00000000E+00  0.00000000E+00  0.00000000E+00
  0.00000000E+00  0.00000000E+00  0.00000000E+00
  0.00000000E+00  0.00000000E+00  0.00000000E+00
