Ga4 Mo4 N12                             
   1.0000000000000000     
     7.5611627143947349    0.0000000000000000    0.0000000000000000
     0.0000000000000000    5.2961646162942531    0.0000000000000000
     0.0000000000000000    0.0000000000000000    5.3424305106290637
   Ga   Mo   N 
     4     4    12
Direct
  0.5000000000000000  0.2526430829093016  0.9857019294894087
  0.5000000000000000  0.7473569170906984  0.4857019294894087
  0.0000000000000000  0.1946937553692294  0.0297148125081819
  0.0000000000000000  0.8053062446307706  0.5297148125081748
  0.2529717860809697  0.2526553751192111  0.5439888259697696
  0.2529717860809697  0.7473446248807889  0.0439888259697696
  0.7470282139190303  0.2526553751192111  0.5439888259697696
  0.7470282139190303  0.7473446248807889  0.0439888259697696
  0.3200558468756043  0.9462655894966829  0.6514080698143374
  0.5000000000000000  0.3904228798870193  0.5365970804216360
  0.1822994535134228  0.3853163262953885  0.8311717468197770
  0.1822994535134228  0.6146836737046115  0.3311717468197770
  0.5000000000000000  0.6095771201129807  0.0365970804216360
  0.3200558468756043  0.0537344105033171  0.1514080698143374
  0.6799441531243957  0.9462655894966829  0.6514080698143374
  0.0000000000000000  0.1554353529290111  0.3951978923730124
  0.8177005464865772  0.3853163262953885  0.8311717468197770
  0.8177005464865772  0.6146836737046115  0.3311717468197770
  0.0000000000000000  0.8445646470709889  0.8951978923730124
  0.6799441531243957  0.0537344105033171  0.1514080698143374

  0.00000000E+00  0.00000000E+00  0.00000000E+00
  0.00000000E+00  0.00000000E+00  0.00000000E+00
  0.00000000E+00  0.00000000E+00  0.00000000E+00
  0.00000000E+00  0.00000000E+00  0.00000000E+00
  0.00000000E+00  0.00000000E+00  0.00000000E+00
  0.00000000E+00  0.00000000E+00  0.00000000E+00
  0.00000000E+00  0.00000000E+00  0.00000000E+00
  0.00000000E+00  0.00000000E+00  0.00000000E+00
  0.00000000E+00  0.00000000E+00  0.00000000E+00
  0.00000000E+00  0.00000000E+00  0.00000000E+00
  0.00000000E+00  0.00000000E+00  0.00000000E+00
  0.00000000E+00  0.00000000E+00  0.00000000E+00
  0.00000000E+00  0.00000000E+00  0.00000000E+00
  0.00000000E+00  0.00000000E+00  0.00000000E+00
  0.00000000E+00  0.00000000E+00  0.00000000E+00
  0.00000000E+00  0.00000000E+00  0.00000000E+00
  0.00000000E+00  0.00000000E+00  0.00000000E+00
  0.00000000E+00  0.00000000E+00  0.00000000E+00
  0.00000000E+00  0.00000000E+00  0.00000000E+00
  0.00000000E+00  0.00000000E+00  0.00000000E+00
