Hf4 Ta4 N12                             
   1.0000000000000000     
     5.1486498163557028   -0.0013468388007854    0.0000000000000000
    -3.3525260012393132    5.8097778975669447    0.0000000000000000
     0.0000000000000000    0.0000000000000000    7.3282377107406447
   Hf   Ta   N 
     4     4    12
Direct
  0.3887436420537006  0.3704290856260535  0.0072879553179224
  0.6112563579462994  0.6295709143739464  0.5072879553179224
  0.1112563579462994  0.1295709143739465  0.5072879553179224
  0.8887436420537006  0.8704290856260536  0.0072879553179224
  0.5360091231029057  0.0360270152861964  0.7572971668100223
  0.4639908768970943  0.9639729847138035  0.2572971668100224
  0.0360091231029058  0.5360270152861965  0.7572971668100223
  0.9639908768970943  0.4639729847138036  0.2572971668100224
  0.5424992764927198  0.3206623361800645  0.6866404391682531
  0.4575007235072803  0.6793376638199284  0.1866404391682531
  0.9575007235072802  0.1793376638199356  0.1866404391682531
  0.0424992764927197  0.8206623361800716  0.6866404391682531
  0.0401741515656176  0.8184813528702765  0.3277948826384465
  0.9598258484343825  0.1815186471297236  0.8277948826384465
  0.6379371316940352  0.9539922010442348  0.5072525560653569
  0.3620628683059647  0.0460077989557653  0.0072525560653569
  0.8620628683059648  0.5460077989557652  0.0072525560653569
  0.1379371316940353  0.4539922010442347  0.5072525560653569
  0.5401741515656175  0.3184813528702764  0.3277948826384465
  0.4598258484343823  0.6815186471297235  0.8277948826384465

  0.00000000E+00  0.00000000E+00  0.00000000E+00
  0.00000000E+00  0.00000000E+00  0.00000000E+00
  0.00000000E+00  0.00000000E+00  0.00000000E+00
  0.00000000E+00  0.00000000E+00  0.00000000E+00
  0.00000000E+00  0.00000000E+00  0.00000000E+00
  0.00000000E+00  0.00000000E+00  0.00000000E+00
  0.00000000E+00  0.00000000E+00  0.00000000E+00
  0.00000000E+00  0.00000000E+00  0.00000000E+00
  0.00000000E+00  0.00000000E+00  0.00000000E+00
  0.00000000E+00  0.00000000E+00  0.00000000E+00
  0.00000000E+00  0.00000000E+00  0.00000000E+00
  0.00000000E+00  0.00000000E+00  0.00000000E+00
  0.00000000E+00  0.00000000E+00  0.00000000E+00
  0.00000000E+00  0.00000000E+00  0.00000000E+00
  0.00000000E+00  0.00000000E+00  0.00000000E+00
  0.00000000E+00  0.00000000E+00  0.00000000E+00
  0.00000000E+00  0.00000000E+00  0.00000000E+00
  0.00000000E+00  0.00000000E+00  0.00000000E+00
  0.00000000E+00  0.00000000E+00  0.00000000E+00
  0.00000000E+00  0.00000000E+00  0.00000000E+00
