Zr4 Ta4 N12                             
   1.0000000000000000     
     5.1740868313862016    0.0000000000000000    0.0016440707101598
     0.0000000000000000    7.3417078391151049    0.0000000000000000
    -3.3693209440693250    0.0000000000000000    5.8416864563286390
   Zr   Ta   N 
     4     4    12
Direct
  0.6396664522586806  0.3982171425059831  0.6201131235745995
  0.3603335477413194  0.8982171425059829  0.3798868764254005
  0.8603335477413194  0.8982171425059829  0.8798868764254005
  0.1396664522586805  0.3982171425059831  0.1201131235745995
  0.2847954179770089  0.6481761713054863  0.7848016850631131
  0.7152045820229912  0.1481761713054863  0.2151983149368869
  0.7847954179770088  0.6481761713054863  0.2848016850631131
  0.2152045820229983  0.1481761713054863  0.7151983149368869
  0.2073407847670140  0.5787858540347396  0.4314357334067673
  0.7926592152329860  0.0787858540347396  0.5685642665932256
  0.6144802246956217  0.3981465268533902  0.2952281119859226
  0.3855197753043783  0.8981465268533901  0.7047718880140774
  0.7073407847670140  0.5787858540347396  0.9314357334067744
  0.2926592152329860  0.0787858540347396  0.0685642665932326
  0.2064145967073751  0.2175263053004048  0.4305883467876852
  0.7935854032926248  0.7175263053004048  0.5694126532123123
  0.2935854032926248  0.7175263053004048  0.0694116532123148
  0.7064145967073752  0.2175263053004048  0.9305873467876877
  0.1144802246956217  0.3981465268533902  0.7952281119859226
  0.8855197753043783  0.8981465268533901  0.2047718880140774

  0.00000000E+00  0.00000000E+00  0.00000000E+00
  0.00000000E+00  0.00000000E+00  0.00000000E+00
  0.00000000E+00  0.00000000E+00  0.00000000E+00
  0.00000000E+00  0.00000000E+00  0.00000000E+00
  0.00000000E+00  0.00000000E+00  0.00000000E+00
  0.00000000E+00  0.00000000E+00  0.00000000E+00
  0.00000000E+00  0.00000000E+00  0.00000000E+00
  0.00000000E+00  0.00000000E+00  0.00000000E+00
  0.00000000E+00  0.00000000E+00  0.00000000E+00
  0.00000000E+00  0.00000000E+00  0.00000000E+00
  0.00000000E+00  0.00000000E+00  0.00000000E+00
  0.00000000E+00  0.00000000E+00  0.00000000E+00
  0.00000000E+00  0.00000000E+00  0.00000000E+00
  0.00000000E+00  0.00000000E+00  0.00000000E+00
  0.00000000E+00  0.00000000E+00  0.00000000E+00
  0.00000000E+00  0.00000000E+00  0.00000000E+00
  0.00000000E+00  0.00000000E+00  0.00000000E+00
  0.00000000E+00  0.00000000E+00  0.00000000E+00
  0.00000000E+00  0.00000000E+00  0.00000000E+00
  0.00000000E+00  0.00000000E+00  0.00000000E+00
