In2 W2 N6                               
   1.0000000000000000     
     2.6755933762375124    1.5447545560127074    4.8209443680362876
    -2.6755933762375124    1.5447545560127074    4.8209443680362876
     0.0000000000000000   -3.0895091120254148    4.8209443680362876
   In   W    N 
     2     2     6
Direct
  0.0198868525174731  0.0198868525174731  0.0198868525174731
  0.5198868525174731  0.5198868525174731  0.5198868525174731
  0.2472390588656737  0.2472390588656737  0.2472390588656737
  0.7472390588656737  0.7472390588656737  0.7472390588656737
  0.5846703734223340  0.9680230775885263  0.3567762276059909
  0.9680230775885263  0.3567762276059909  0.5846703734223340
  0.3567762276059909  0.5846703734223340  0.9680230775885263
  0.0846703734223340  0.8567762276059909  0.4680230775885263
  0.8567762276059909  0.4680230775885263  0.0846703734223340
  0.4680230775885263  0.0846703734223340  0.8567762276059909

  0.00000000E+00  0.00000000E+00  0.00000000E+00
  0.00000000E+00  0.00000000E+00  0.00000000E+00
  0.00000000E+00  0.00000000E+00  0.00000000E+00
  0.00000000E+00  0.00000000E+00  0.00000000E+00
  0.00000000E+00  0.00000000E+00  0.00000000E+00
  0.00000000E+00  0.00000000E+00  0.00000000E+00
  0.00000000E+00  0.00000000E+00  0.00000000E+00
  0.00000000E+00  0.00000000E+00  0.00000000E+00
  0.00000000E+00  0.00000000E+00  0.00000000E+00
  0.00000000E+00  0.00000000E+00  0.00000000E+00
