Hf4 Sb4 N12                             
   1.0000000000000000     
     5.2582104797945544    0.0000000000000000    0.0000000000000000
     0.0000000000000000    5.5569394474848357    0.0000000000000000
     0.0000000000000000    0.0000000000000000    7.8012332310483572
   Hf   Sb   N 
     4     4    12
Direct
  0.2316087391457273  0.9374261586012906  0.2417566907772297
  0.7683912608542727  0.4374261586012906  0.2582433092227703
  0.2683912608542727  0.0625738413987094  0.7417566907772297
  0.7316087391457273  0.5625738413987094  0.7582433092227703
  0.2388157421718304  0.4993020016454324  0.9973910857197836
  0.7388157421718304  0.0006979983545676  0.0026089142802164
  0.2611842578281696  0.5006979983545676  0.4973910857197836
  0.7611842578281696  0.9993020016454324  0.5026089142802164
  0.8989038917668708  0.6701407372972952  0.0564252248029717
  0.3950338679995653  0.5673670428301136  0.2445795932732651
  0.3989038917668708  0.8298592627027048  0.9435747751970283
  0.5390681177730912  0.2959368991952829  0.9102626261700024
  0.6049661320004347  0.0673670428301136  0.2554204067267349
  0.0390681177730912  0.2040631008047171  0.0897373738299976
  0.9609318822269088  0.7040631008047171  0.4102626261700024
  0.1049661320004347  0.4326329571698864  0.7445795932732651
  0.4609318822269088  0.7959368991952829  0.5897373738299976
  0.6010961082331292  0.3298592627027048  0.5564252248029717
  0.8950338679995653  0.9326329571698864  0.7554204067267349
  0.1010961082331292  0.1701407372972952  0.4435747751970283

  0.00000000E+00  0.00000000E+00  0.00000000E+00
  0.00000000E+00  0.00000000E+00  0.00000000E+00
  0.00000000E+00  0.00000000E+00  0.00000000E+00
  0.00000000E+00  0.00000000E+00  0.00000000E+00
  0.00000000E+00  0.00000000E+00  0.00000000E+00
  0.00000000E+00  0.00000000E+00  0.00000000E+00
  0.00000000E+00  0.00000000E+00  0.00000000E+00
  0.00000000E+00  0.00000000E+00  0.00000000E+00
  0.00000000E+00  0.00000000E+00  0.00000000E+00
  0.00000000E+00  0.00000000E+00  0.00000000E+00
  0.00000000E+00  0.00000000E+00  0.00000000E+00
  0.00000000E+00  0.00000000E+00  0.00000000E+00
  0.00000000E+00  0.00000000E+00  0.00000000E+00
  0.00000000E+00  0.00000000E+00  0.00000000E+00
  0.00000000E+00  0.00000000E+00  0.00000000E+00
  0.00000000E+00  0.00000000E+00  0.00000000E+00
  0.00000000E+00  0.00000000E+00  0.00000000E+00
  0.00000000E+00  0.00000000E+00  0.00000000E+00
  0.00000000E+00  0.00000000E+00  0.00000000E+00
  0.00000000E+00  0.00000000E+00  0.00000000E+00
