Tl4 W4 N12                              
   1.0000000000000000     
     3.9255678713070767   -0.0004882826320419   -0.0339490829208037
    -0.0006785982518833    6.0902343663710337    0.0020639509044980
    -1.8338607393674391    0.1947925365141742   12.1199822338631495
   Tl   W    N 
     4     4    12
Direct
  0.9168369292880219  0.0081586818560110  0.3382908751124183
  0.0831630707119782  0.9918413181439889  0.6617091248875816
  0.2017003649089744  0.4766502713115684  0.9016294321175086
  0.7982996350910256  0.5233497286884314  0.0983705678824914
  0.3045960670553062  0.0126331030466931  0.1103296899249388
  0.6954039329447009  0.9873668969533069  0.8896703100750611
  0.4007543175391975  0.5063836111408284  0.3070579921358344
  0.5992456824608027  0.4936163888591716  0.6929420078641654
  0.4743454983546832  0.3103484503499735  0.4516014146699482
  0.5256545016453168  0.6896515496500264  0.5483985853300516
  0.4751965296948345  0.6944944587425703  0.4528528585865330
  0.5248034703051586  0.3055055412574367  0.5471471414134671
  0.3498534306096305  0.2535370880484041  0.2027886550165704
  0.6501465693903695  0.7464629119515960  0.7972113449834296
  0.9041060929446608  0.5075744222935877  0.3122312544642687
  0.0958939070553391  0.4924255777064122  0.6877687455357312
  0.3504682291613295  0.7716668457192953  0.2040220863831478
  0.6495317708386704  0.2283331542807047  0.7959779136168523
  0.7802911179331847  0.0204553805527136  0.0614556149694766
  0.2197088820668153  0.9795446194472864  0.9385443850305234

  0.00000000E+00  0.00000000E+00  0.00000000E+00
  0.00000000E+00  0.00000000E+00  0.00000000E+00
  0.00000000E+00  0.00000000E+00  0.00000000E+00
  0.00000000E+00  0.00000000E+00  0.00000000E+00
  0.00000000E+00  0.00000000E+00  0.00000000E+00
  0.00000000E+00  0.00000000E+00  0.00000000E+00
  0.00000000E+00  0.00000000E+00  0.00000000E+00
  0.00000000E+00  0.00000000E+00  0.00000000E+00
  0.00000000E+00  0.00000000E+00  0.00000000E+00
  0.00000000E+00  0.00000000E+00  0.00000000E+00
  0.00000000E+00  0.00000000E+00  0.00000000E+00
  0.00000000E+00  0.00000000E+00  0.00000000E+00
  0.00000000E+00  0.00000000E+00  0.00000000E+00
  0.00000000E+00  0.00000000E+00  0.00000000E+00
  0.00000000E+00  0.00000000E+00  0.00000000E+00
  0.00000000E+00  0.00000000E+00  0.00000000E+00
  0.00000000E+00  0.00000000E+00  0.00000000E+00
  0.00000000E+00  0.00000000E+00  0.00000000E+00
  0.00000000E+00  0.00000000E+00  0.00000000E+00
  0.00000000E+00  0.00000000E+00  0.00000000E+00
