Hf2 Sb2 N6                              
   1.0000000000000000     
     3.1841282749512896   -0.0000001202101502   -0.0004642649962203
    -0.0000001968038691    5.3264356578912455    0.0000001996473977
    -1.5910043632939457    0.0000003123610981    6.8424750966236161
   Hf   Sb   N 
     2     2     6
Direct
  0.9532280955407449  0.6897939874106862  0.9063567622419579
  0.0467720039017941  0.1897940556519319  0.0936433710662026
  0.6749155455660832  0.6436501935582634  0.3499868741108532
  0.3250844650711297  0.1436501169827307  0.6500130652222558
  0.2005128121844541  0.3729677687179326  0.4012284174662679
  0.7994871773879975  0.8729677221229265  0.5987714285936413
  0.8831527872843379  0.3418957487398477  0.7661334074283039
  0.1168472747316232  0.8418956995471599  0.2338666459894622
  0.5358178016423927  0.4675063996229537  0.0717545701043202
  0.4641820366894498  0.9675063076455721  0.9282454577767419

  0.00000000E+00  0.00000000E+00  0.00000000E+00
  0.00000000E+00  0.00000000E+00  0.00000000E+00
  0.00000000E+00  0.00000000E+00  0.00000000E+00
  0.00000000E+00  0.00000000E+00  0.00000000E+00
  0.00000000E+00  0.00000000E+00  0.00000000E+00
  0.00000000E+00  0.00000000E+00  0.00000000E+00
  0.00000000E+00  0.00000000E+00  0.00000000E+00
  0.00000000E+00  0.00000000E+00  0.00000000E+00
  0.00000000E+00  0.00000000E+00  0.00000000E+00
  0.00000000E+00  0.00000000E+00  0.00000000E+00
