Y4 Mo4 N12                              
   1.0000000000000000     
     5.6932206141965622    0.0000000402984981    0.0000000058077139
     0.0000000406019111    5.3778957621379533   -0.0005576510171785
    -0.0000000101216267    0.0010999588373908    7.7934149081444195
   Y    Mo   N 
     4     4    12
Direct
  0.1829015578718943  0.1508445478771085  0.3209387602046035
  0.8170984464198905  0.6508445516208089  0.8209387593318225
  0.6828593365916156  0.6243408926492580  0.3208853830707149
  0.3171406574576173  0.1243408933998894  0.8208853823886435
  0.2078364211097188  0.6536403764515697  0.5451323390155574
  0.7921635768982249  0.1536403783946341  0.0451323408018333
  0.7078716784962551  0.1216593320664152  0.5451381588916243
  0.2921283217786539  0.6216593373659769  0.0451381546862559
  0.4368965320748749  0.3355313443168292  0.1187551809943824
  0.5631034681807713  0.8355313438052953  0.6187551793098702
  0.7733223055293912  0.0447914136400334  0.3220690071069242
  0.2266776989001323  0.5447914191467609  0.8220690041237461
  0.9368448146456341  0.4400294217132721  0.1186544327449607
  0.0631551867564657  0.9400294301853929  0.6186544302033210
  0.7266662648567919  0.2305926312338872  0.8220818664432652
  0.2733337343376303  0.7305926260117960  0.3220818644933371
  0.4584362746949857  0.3326626610996314  0.5215258722469670
  0.5415637245772905  0.8326626564694011  0.0215258682919440
  0.9583835963687904  0.4428513753726738  0.5215210076993286
  0.0416164024533712  0.9428513671793983  0.0215210079508822

  0.00000000E+00  0.00000000E+00  0.00000000E+00
  0.00000000E+00  0.00000000E+00  0.00000000E+00
  0.00000000E+00  0.00000000E+00  0.00000000E+00
  0.00000000E+00  0.00000000E+00  0.00000000E+00
  0.00000000E+00  0.00000000E+00  0.00000000E+00
  0.00000000E+00  0.00000000E+00  0.00000000E+00
  0.00000000E+00  0.00000000E+00  0.00000000E+00
  0.00000000E+00  0.00000000E+00  0.00000000E+00
  0.00000000E+00  0.00000000E+00  0.00000000E+00
  0.00000000E+00  0.00000000E+00  0.00000000E+00
  0.00000000E+00  0.00000000E+00  0.00000000E+00
  0.00000000E+00  0.00000000E+00  0.00000000E+00
  0.00000000E+00  0.00000000E+00  0.00000000E+00
  0.00000000E+00  0.00000000E+00  0.00000000E+00
  0.00000000E+00  0.00000000E+00  0.00000000E+00
  0.00000000E+00  0.00000000E+00  0.00000000E+00
  0.00000000E+00  0.00000000E+00  0.00000000E+00
  0.00000000E+00  0.00000000E+00  0.00000000E+00
  0.00000000E+00  0.00000000E+00  0.00000000E+00
  0.00000000E+00  0.00000000E+00  0.00000000E+00
