Sc4 Mo4 N12                             
   1.0000000000000000     
     5.5881332729195980    0.0000001589107730   -0.0000000001330047
     0.0000001456702894    5.1760495407087577    0.0000000111958678
    -0.0000000001775236    0.0000000135955096    7.5546687117573468
   Sc   Mo   N 
     4     4    12
Direct
  0.5769865365455900  0.0120953369042383  0.2717755723747786
  0.0769865222863686  0.4879046518980346  0.2717755634848942
  0.4230134643298626  0.9879046585999163  0.7717755700701261
  0.9230134774671725  0.5120953441565135  0.7717755679524316
  0.0423237098066664  0.9805517361270901  0.4936873079671429
  0.5423236898236397  0.5194482857772726  0.4936873198568819
  0.9576762905609471  0.0194482630534836  0.9936873090630840
  0.4576763091116405  0.4805517130407750  0.9936873218591558
  0.9581229159868059  0.8791367450361562  0.2651668420436977
  0.6759631008144638  0.8172475027536450  0.5773440249813930
  0.7991737446681597  0.3130647595747220  0.4520502480848876
  0.4581229141168279  0.6208632633234501  0.2651668460222609
  0.2991737465236568  0.1869352109539335  0.4520502363837551
  0.1759631031429763  0.6827524830757383  0.5773440399944292
  0.0418770842459466  0.1208632540990777  0.7651668396373310
  0.7008262530351601  0.8130647945385334  0.9520502341683112
  0.8240369009922688  0.3172475252659552  0.0773440315994094
  0.5418770865900413  0.3791367371169727  0.7651668468870838
  0.3240368968430261  0.1827524972274048  0.0773440262086282
  0.2008262531087794  0.6869352374771225  0.9520502513603404

  0.00000000E+00  0.00000000E+00  0.00000000E+00
  0.00000000E+00  0.00000000E+00  0.00000000E+00
  0.00000000E+00  0.00000000E+00  0.00000000E+00
  0.00000000E+00  0.00000000E+00  0.00000000E+00
  0.00000000E+00  0.00000000E+00  0.00000000E+00
  0.00000000E+00  0.00000000E+00  0.00000000E+00
  0.00000000E+00  0.00000000E+00  0.00000000E+00
  0.00000000E+00  0.00000000E+00  0.00000000E+00
  0.00000000E+00  0.00000000E+00  0.00000000E+00
  0.00000000E+00  0.00000000E+00  0.00000000E+00
  0.00000000E+00  0.00000000E+00  0.00000000E+00
  0.00000000E+00  0.00000000E+00  0.00000000E+00
  0.00000000E+00  0.00000000E+00  0.00000000E+00
  0.00000000E+00  0.00000000E+00  0.00000000E+00
  0.00000000E+00  0.00000000E+00  0.00000000E+00
  0.00000000E+00  0.00000000E+00  0.00000000E+00
  0.00000000E+00  0.00000000E+00  0.00000000E+00
  0.00000000E+00  0.00000000E+00  0.00000000E+00
  0.00000000E+00  0.00000000E+00  0.00000000E+00
  0.00000000E+00  0.00000000E+00  0.00000000E+00
