Y4 W4 N12                               
   1.0000000000000000     
     7.6249643261817353    0.0000000013809834    0.0000000009188099
    -0.0000000002671071    5.6685665348460059    0.0000000003766348
     0.0000000045150832    0.0000000104417033    5.5146120376982699
   Y    W    N 
     4     4    12
Direct
  0.4999999994740554  0.6856023801325883  0.9898175550075534
  0.5000000005768104  0.1924298517776638  0.4982070480155418
  0.0000000004846554  0.8075701491506218  0.9982070472940651
  0.9999999995307879  0.3143976197248743  0.4898175540106572
  0.7424946993012552  0.2386368502372800  0.9659847464369050
  0.7575052885891322  0.7613631464743882  0.4659847326601566
  0.2575052885738222  0.2386368526677566  0.9659847331568586
  0.2424946991809805  0.7613631488239574  0.4659847459442358
  0.5000000001937264  0.2832214041999580  0.1043744381633984
  0.7970315723672506  0.5555902506191825  0.2116541080800181
  0.7029684319474969  0.4444097492676590  0.7116541143010933
  0.5000000032418991  0.7746865765431901  0.4252504738872349
  0.7018339528154550  0.9520026276912245  0.8132908947003107
  0.7981660519838766  0.0479973744156847  0.3132908896388206
  0.0000000032429206  0.2253134262226714  0.9252504742689617
  0.2029684322404584  0.5555902511247226  0.2116541139737433
  0.2970315726310979  0.4444097496288001  0.7116541083028152
  0.0000000002218680  0.7167785941932929  0.6043744377777155
  0.2981660512539316  0.9520026251338406  0.8132908908776431
  0.2018339521485267  0.0479973719706643  0.3132908935022424

  0.00000000E+00  0.00000000E+00  0.00000000E+00
  0.00000000E+00  0.00000000E+00  0.00000000E+00
  0.00000000E+00  0.00000000E+00  0.00000000E+00
  0.00000000E+00  0.00000000E+00  0.00000000E+00
  0.00000000E+00  0.00000000E+00  0.00000000E+00
  0.00000000E+00  0.00000000E+00  0.00000000E+00
  0.00000000E+00  0.00000000E+00  0.00000000E+00
  0.00000000E+00  0.00000000E+00  0.00000000E+00
  0.00000000E+00  0.00000000E+00  0.00000000E+00
  0.00000000E+00  0.00000000E+00  0.00000000E+00
  0.00000000E+00  0.00000000E+00  0.00000000E+00
  0.00000000E+00  0.00000000E+00  0.00000000E+00
  0.00000000E+00  0.00000000E+00  0.00000000E+00
  0.00000000E+00  0.00000000E+00  0.00000000E+00
  0.00000000E+00  0.00000000E+00  0.00000000E+00
  0.00000000E+00  0.00000000E+00  0.00000000E+00
  0.00000000E+00  0.00000000E+00  0.00000000E+00
  0.00000000E+00  0.00000000E+00  0.00000000E+00
  0.00000000E+00  0.00000000E+00  0.00000000E+00
  0.00000000E+00  0.00000000E+00  0.00000000E+00
