V4 Sn4 N12                              
   1.0000000000000000     
     6.6575122471932540   -0.0087090672505418    0.0158314044708097
     3.6382164060067619    5.5748955235607536    0.0151089445366311
     7.0000285351008147    1.9819520734493925    6.4525023607282472
   V    Sn   N 
     4     4    12
Direct
  0.4809761481232556  0.0641733226116294  0.6658540811649380
  0.5190238518767444  0.9358266773883707  0.3341459188350619
  0.0190238518767444  0.4358266773883706  0.3341459188350619
  0.9809761481232556  0.5641733226116293  0.6658540811649380
  0.3546565258258560  0.5131640983887163  0.8167963588276184
  0.6453434741741439  0.4868359016112836  0.1832036411723817
  0.1453434741741440  0.9868359016112837  0.1832036411723817
  0.8546565258258561  0.0131640983887164  0.8167963588276184
  0.4542683153826437  0.1258365803171053  0.8429612152164178
  0.5457316846173564  0.8741634196828947  0.1570387847835822
  0.7642516937877206  0.1118127763585256  0.1954295304265437
  0.2357483062122793  0.8881872236414744  0.8045704695734562
  0.1437073407663721  0.1300156535253638  0.4732351690248937
  0.8562926592336279  0.8699843464746363  0.5267648309751063
  0.6437073407663721  0.6300156535253637  0.4732351690248937
  0.3562926592336278  0.3699843464746362  0.5267648309751063
  0.0457316846173563  0.3741634196828947  0.1570387847835822
  0.9542683153826436  0.6258365803171053  0.8429612152164178
  0.2642516937877207  0.6118127763585256  0.1954295304265437
  0.7357483062122794  0.3881872236414743  0.8045704695734562

  0.00000000E+00  0.00000000E+00  0.00000000E+00
  0.00000000E+00  0.00000000E+00  0.00000000E+00
  0.00000000E+00  0.00000000E+00  0.00000000E+00
  0.00000000E+00  0.00000000E+00  0.00000000E+00
  0.00000000E+00  0.00000000E+00  0.00000000E+00
  0.00000000E+00  0.00000000E+00  0.00000000E+00
  0.00000000E+00  0.00000000E+00  0.00000000E+00
  0.00000000E+00  0.00000000E+00  0.00000000E+00
  0.00000000E+00  0.00000000E+00  0.00000000E+00
  0.00000000E+00  0.00000000E+00  0.00000000E+00
  0.00000000E+00  0.00000000E+00  0.00000000E+00
  0.00000000E+00  0.00000000E+00  0.00000000E+00
  0.00000000E+00  0.00000000E+00  0.00000000E+00
  0.00000000E+00  0.00000000E+00  0.00000000E+00
  0.00000000E+00  0.00000000E+00  0.00000000E+00
  0.00000000E+00  0.00000000E+00  0.00000000E+00
  0.00000000E+00  0.00000000E+00  0.00000000E+00
  0.00000000E+00  0.00000000E+00  0.00000000E+00
  0.00000000E+00  0.00000000E+00  0.00000000E+00
  0.00000000E+00  0.00000000E+00  0.00000000E+00
