V4 Sn4 N12                              
   1.0000000000000000     
     5.3428228659519483    0.0000000000000000    0.0000000000000000
     0.0000000000000000    5.0963204611108095    0.0000000000000000
     0.0000000000000000    0.0000000000000000    7.8268820618573161
   V    Sn   N 
     4     4    12
Direct
  0.5121694311307152  0.4992865233221622  0.0238046154164095
  0.0121694311307152  0.0007134766778378  0.0238046154164095
  0.4878305688692848  0.5007134766778378  0.5238046154164095
  0.9878305688692848  0.9992865233221622  0.5238046154164095
  0.0404949611796965  0.5143849417020334  0.7799466721418895
  0.5404949611796965  0.9856150582979666  0.7799466721418895
  0.9595050388203035  0.4856150582979666  0.2799466721418895
  0.4595050388202964  0.0143849417020263  0.2799466721418895
  0.4367088803235291  0.3773744247660886  0.7308667873699974
  0.1418873349553493  0.3234746590315396  0.0475194331883415
  0.2576336201608527  0.7992338445352871  0.9179304918833466
  0.9367088803235291  0.1226255752339114  0.7308667873699974
  0.7576336201608527  0.7007661554647129  0.9179304918833466
  0.6418873349553493  0.1765253409684604  0.0475194331883415
  0.5632911196764709  0.6226255752339114  0.2308667873699974
  0.2423663798391473  0.2992338445352871  0.4179304918833466
  0.3581126650446507  0.8234746590315396  0.5475194331883415
  0.0632911196764709  0.8773744247660886  0.2308667873699974
  0.8581126650446507  0.6765253409684604  0.5475194331883415
  0.7423663798391473  0.2007661554647129  0.4179304918833466

  0.00000000E+00  0.00000000E+00  0.00000000E+00
  0.00000000E+00  0.00000000E+00  0.00000000E+00
  0.00000000E+00  0.00000000E+00  0.00000000E+00
  0.00000000E+00  0.00000000E+00  0.00000000E+00
  0.00000000E+00  0.00000000E+00  0.00000000E+00
  0.00000000E+00  0.00000000E+00  0.00000000E+00
  0.00000000E+00  0.00000000E+00  0.00000000E+00
  0.00000000E+00  0.00000000E+00  0.00000000E+00
  0.00000000E+00  0.00000000E+00  0.00000000E+00
  0.00000000E+00  0.00000000E+00  0.00000000E+00
  0.00000000E+00  0.00000000E+00  0.00000000E+00
  0.00000000E+00  0.00000000E+00  0.00000000E+00
  0.00000000E+00  0.00000000E+00  0.00000000E+00
  0.00000000E+00  0.00000000E+00  0.00000000E+00
  0.00000000E+00  0.00000000E+00  0.00000000E+00
  0.00000000E+00  0.00000000E+00  0.00000000E+00
  0.00000000E+00  0.00000000E+00  0.00000000E+00
  0.00000000E+00  0.00000000E+00  0.00000000E+00
  0.00000000E+00  0.00000000E+00  0.00000000E+00
  0.00000000E+00  0.00000000E+00  0.00000000E+00
