Hf8 Ta8 N24                             
   1.0000000000000000     
     7.6043911681894043    0.0000000000000000   -0.0186385668211557
     0.0000000000000000    7.7852644463761242    0.0000000000000000
    -7.0986400186583296    0.0000000000000000    7.6620388622881421
   Hf   Ta   N 
     8     8    24
Direct
  0.9347904951179515  0.2359163639996851  0.9600286893957630
  0.9347904951179515  0.2640836360003149  0.4600286893957630
  0.4322194801226118  0.2283777161605514  0.9747170625257482
  0.4322194801226118  0.2716222838394486  0.4747170625257482
  0.0652095048820414  0.7640836360003078  0.0399713106042370
  0.0652095048820414  0.7359163639996922  0.5399713106042370
  0.5677805198773882  0.7716222838394486  0.0252829374742518
  0.5677805198773882  0.7283777161605514  0.5252829374742518
  0.4894801204679951  0.0016602299448181  0.7331311736814570
  0.5105198795320049  0.9983397700551819  0.2668688263185430
  0.9930399774431038  0.9914380424652478  0.7503523354350605
  0.0069600225568962  0.0085619575347522  0.2496476645649395
  0.5105198795320049  0.5016602299448181  0.7668688263185430
  0.4894801204679951  0.4983397700551819  0.2331311736814570
  0.0069600225568962  0.4914380424652478  0.7496476645649395
  0.9930399774431038  0.5085619575347522  0.2503523354350605
  0.5619208643634295  0.2616266063313049  0.8517073234020245
  0.5619208643634295  0.2383733936686951  0.3517073234020245
  0.8165828953909795  0.9470163769410505  0.9963623164949240
  0.8078888535934112  0.9058838861238172  0.4989311586100413
  0.6929335588474643  0.0910931381593514  0.6869063902080086
  0.6814872943164048  0.0518311047143456  0.1818735252357442
  0.0603318144721143  0.2498800667713041  0.2099454425940479
  0.0603318144721143  0.2501199332286959  0.7099454425940479
  0.1834171046090205  0.0529836230589495  0.0036376835050760
  0.1921111464065888  0.0941161138761899  0.5010688413899587
  0.3070664411525357  0.9089068618406486  0.3130936097919914
  0.3185127056835952  0.9481688952856544  0.8181264747642558
  0.4380791356365705  0.7383733936686951  0.1482926765979755
  0.4380791356365705  0.7616266063313049  0.6482926765979755
  0.8078888535934112  0.5941161138761828  0.9989311586100413
  0.8165828953909795  0.5529836230589495  0.4963623164949240
  0.6814872943164048  0.4481688952856544  0.6818735252357442
  0.6929335588474643  0.4089068618406486  0.1869063902080086
  0.9396681855278857  0.7501199332286959  0.7900545574059521
  0.9396681855278857  0.7498800667713041  0.2900545574059521
  0.1921111464065888  0.4058838861238101  0.0010688413899587
  0.1834171046090205  0.4470163769410505  0.5036376835050760
  0.3185127056835952  0.5518311047143456  0.3181264747642558
  0.3070664411525357  0.5910931381593514  0.8130936097919914

  0.00000000E+00  0.00000000E+00  0.00000000E+00
  0.00000000E+00  0.00000000E+00  0.00000000E+00
  0.00000000E+00  0.00000000E+00  0.00000000E+00
  0.00000000E+00  0.00000000E+00  0.00000000E+00
  0.00000000E+00  0.00000000E+00  0.00000000E+00
  0.00000000E+00  0.00000000E+00  0.00000000E+00
  0.00000000E+00  0.00000000E+00  0.00000000E+00
  0.00000000E+00  0.00000000E+00  0.00000000E+00
  0.00000000E+00  0.00000000E+00  0.00000000E+00
  0.00000000E+00  0.00000000E+00  0.00000000E+00
  0.00000000E+00  0.00000000E+00  0.00000000E+00
  0.00000000E+00  0.00000000E+00  0.00000000E+00
  0.00000000E+00  0.00000000E+00  0.00000000E+00
  0.00000000E+00  0.00000000E+00  0.00000000E+00
  0.00000000E+00  0.00000000E+00  0.00000000E+00
  0.00000000E+00  0.00000000E+00  0.00000000E+00
  0.00000000E+00  0.00000000E+00  0.00000000E+00
  0.00000000E+00  0.00000000E+00  0.00000000E+00
  0.00000000E+00  0.00000000E+00  0.00000000E+00
  0.00000000E+00  0.00000000E+00  0.00000000E+00
  0.00000000E+00  0.00000000E+00  0.00000000E+00
  0.00000000E+00  0.00000000E+00  0.00000000E+00
  0.00000000E+00  0.00000000E+00  0.00000000E+00
  0.00000000E+00  0.00000000E+00  0.00000000E+00
  0.00000000E+00  0.00000000E+00  0.00000000E+00
  0.00000000E+00  0.00000000E+00  0.00000000E+00
  0.00000000E+00  0.00000000E+00  0.00000000E+00
  0.00000000E+00  0.00000000E+00  0.00000000E+00
  0.00000000E+00  0.00000000E+00  0.00000000E+00
  0.00000000E+00  0.00000000E+00  0.00000000E+00
  0.00000000E+00  0.00000000E+00  0.00000000E+00
  0.00000000E+00  0.00000000E+00  0.00000000E+00
  0.00000000E+00  0.00000000E+00  0.00000000E+00
  0.00000000E+00  0.00000000E+00  0.00000000E+00
  0.00000000E+00  0.00000000E+00  0.00000000E+00
  0.00000000E+00  0.00000000E+00  0.00000000E+00
  0.00000000E+00  0.00000000E+00  0.00000000E+00
  0.00000000E+00  0.00000000E+00  0.00000000E+00
  0.00000000E+00  0.00000000E+00  0.00000000E+00
  0.00000000E+00  0.00000000E+00  0.00000000E+00
