Nb4 Sn4 N12                             
   1.0000000000000000     
     6.3419372803972038    0.0000000000000000   -0.0094843930057918
     0.0000000000000000    5.3509789648580126    0.0000000000000000
    -0.6218775483692708    0.0000000000000000    7.3248289587663891
   Nb   Sn   N 
     4     4    12
Direct
  0.8305230586583079  0.2710139899535378  0.2790720310717063
  0.1694769413416921  0.7289860100464622  0.7209279689282937
  0.8305230586583079  0.2289860100464622  0.7790720310717063
  0.1694769413416921  0.7710139899535378  0.2209279689282937
  0.6130016392907152  0.7487099655060163  0.5737301032148991
  0.3869983607092848  0.2487099655060163  0.9262698967851009
  0.6130016392907152  0.7512900344939837  0.0737301032148991
  0.3869983607092848  0.2512900344939837  0.4262698967851009
  0.4069074041899228  0.4517082615996628  0.6740308314170278
  0.9022179141155036  0.9282108811152554  0.1798418273642639
  0.7233634928398587  0.3842422512753814  0.0097316148147399
  0.2766365071601413  0.8842422512753814  0.4902683851852601
  0.5930925958100772  0.9517082615996628  0.8259691685829722
  0.0977820858844964  0.4282108811152554  0.3201581726357361
  0.0977820858844964  0.0717891188847446  0.8201581726357361
  0.5930925958100772  0.5482917384003372  0.3259691685829722
  0.7233634928398587  0.1157577487246186  0.5097316148147399
  0.2766365071601413  0.6157577487246186  0.9902683851852601
  0.9022179141155036  0.5717891188847446  0.6798418273642639
  0.4069074041899228  0.0482917384003372  0.1740308314170278

  0.00000000E+00  0.00000000E+00  0.00000000E+00
  0.00000000E+00  0.00000000E+00  0.00000000E+00
  0.00000000E+00  0.00000000E+00  0.00000000E+00
  0.00000000E+00  0.00000000E+00  0.00000000E+00
  0.00000000E+00  0.00000000E+00  0.00000000E+00
  0.00000000E+00  0.00000000E+00  0.00000000E+00
  0.00000000E+00  0.00000000E+00  0.00000000E+00
  0.00000000E+00  0.00000000E+00  0.00000000E+00
  0.00000000E+00  0.00000000E+00  0.00000000E+00
  0.00000000E+00  0.00000000E+00  0.00000000E+00
  0.00000000E+00  0.00000000E+00  0.00000000E+00
  0.00000000E+00  0.00000000E+00  0.00000000E+00
  0.00000000E+00  0.00000000E+00  0.00000000E+00
  0.00000000E+00  0.00000000E+00  0.00000000E+00
  0.00000000E+00  0.00000000E+00  0.00000000E+00
  0.00000000E+00  0.00000000E+00  0.00000000E+00
  0.00000000E+00  0.00000000E+00  0.00000000E+00
  0.00000000E+00  0.00000000E+00  0.00000000E+00
  0.00000000E+00  0.00000000E+00  0.00000000E+00
  0.00000000E+00  0.00000000E+00  0.00000000E+00
