Tl8 W8 N24                              
   1.0000000000000000     
     5.4658291013475582    3.1556983339823299    4.7794548444209326
    -5.4658291013475582    3.1556983339823299    4.7794548444209326
    -0.0000000000000000   -6.3113956771389566    4.7794548469748577
   Tl   W    N 
     8     8    24
Direct
  0.7673492255543053  0.2672956533400210  0.7673362048495136
  0.7673362048472896  0.7673492255548240  0.2672956533424653
  0.2672956533393958  0.7673362048461598  0.7673492255573606
  0.2679909197049284  0.2679909197049284  0.2679909197043031
  0.2673362048461598  0.7672956533393887  0.2673492255573606
  0.2673492255548311  0.2673362048472896  0.7672956533424724
  0.7672956533400210  0.2673492255543053  0.2673362048495136
  0.7679909197049284  0.7679909197049284  0.7679909197043102
  0.0140922427114774  0.5138500292769237  0.0140867442085906
  0.0140867440966943  0.0140922427129837  0.5138500293894168
  0.5138500292739465  0.0140867440921966  0.0140922428265071
  0.5140521434708063  0.5140521434708063  0.5140521435945047
  0.5140867440921966  0.0138500292739394  0.5140922428265071
  0.5140922427129837  0.5140867440966943  0.0138500293894097
  0.0138500292769166  0.5140922427114774  0.5140867442085906
  0.0140521434708063  0.0140521434708063  0.0140521435945047
  0.5403679634198042  0.9396684155938217  0.7383157183263336
  0.5403072557162290  0.4396295371803163  0.2383292172549574
  0.0403089626687461  0.4396895464056101  0.7383952242323204
  0.0403066598675395  0.9396990596484471  0.2383892759751305
  0.4396295372869190  0.2383292172569469  0.5403072557644180
  0.4396895465128239  0.7383952242358802  0.0403089627156774
  0.9396684156980726  0.7383157183266604  0.5403679634686114
  0.9396990597573449  0.2383892759792303  0.0403066599146698
  0.7383952243037157  0.0403089628437954  0.4396895464170285
  0.7383157183967270  0.5403679635941145  0.9396684156059933
  0.2383292173248819  0.5403072558907667  0.4396295371928858
  0.2383892760483732  0.0403066600455730  0.9396990596593611
  0.4396684155938146  0.0403679634198042  0.2383157183263407
  0.4396990596484471  0.5403066598675395  0.7383892759751305
  0.9396895464056101  0.5403089626687461  0.2383952242323204
  0.9396295371803163  0.0403072557162290  0.7383292172549574
  0.5403066600455659  0.7383892760483732  0.4396990596593611
  0.5403089628437954  0.2383952243037086  0.9396895464170285
  0.0403679635941145  0.2383157183967342  0.4396684156059933
  0.0403072558907667  0.7383292173248819  0.9396295371928858
  0.2383952242358802  0.9396895465128239  0.5403089627156774
  0.2383157183266675  0.4396684156980726  0.0403679634686114
  0.7383892759792303  0.4396990597573449  0.5403066599146698
  0.7383292172569469  0.9396295372869190  0.0403072557644180

  0.00000000E+00  0.00000000E+00  0.00000000E+00
  0.00000000E+00  0.00000000E+00  0.00000000E+00
  0.00000000E+00  0.00000000E+00  0.00000000E+00
  0.00000000E+00  0.00000000E+00  0.00000000E+00
  0.00000000E+00  0.00000000E+00  0.00000000E+00
  0.00000000E+00  0.00000000E+00  0.00000000E+00
  0.00000000E+00  0.00000000E+00  0.00000000E+00
  0.00000000E+00  0.00000000E+00  0.00000000E+00
  0.00000000E+00  0.00000000E+00  0.00000000E+00
  0.00000000E+00  0.00000000E+00  0.00000000E+00
  0.00000000E+00  0.00000000E+00  0.00000000E+00
  0.00000000E+00  0.00000000E+00  0.00000000E+00
  0.00000000E+00  0.00000000E+00  0.00000000E+00
  0.00000000E+00  0.00000000E+00  0.00000000E+00
  0.00000000E+00  0.00000000E+00  0.00000000E+00
  0.00000000E+00  0.00000000E+00  0.00000000E+00
  0.00000000E+00  0.00000000E+00  0.00000000E+00
  0.00000000E+00  0.00000000E+00  0.00000000E+00
  0.00000000E+00  0.00000000E+00  0.00000000E+00
  0.00000000E+00  0.00000000E+00  0.00000000E+00
  0.00000000E+00  0.00000000E+00  0.00000000E+00
  0.00000000E+00  0.00000000E+00  0.00000000E+00
  0.00000000E+00  0.00000000E+00  0.00000000E+00
  0.00000000E+00  0.00000000E+00  0.00000000E+00
  0.00000000E+00  0.00000000E+00  0.00000000E+00
  0.00000000E+00  0.00000000E+00  0.00000000E+00
  0.00000000E+00  0.00000000E+00  0.00000000E+00
  0.00000000E+00  0.00000000E+00  0.00000000E+00
  0.00000000E+00  0.00000000E+00  0.00000000E+00
  0.00000000E+00  0.00000000E+00  0.00000000E+00
  0.00000000E+00  0.00000000E+00  0.00000000E+00
  0.00000000E+00  0.00000000E+00  0.00000000E+00
  0.00000000E+00  0.00000000E+00  0.00000000E+00
  0.00000000E+00  0.00000000E+00  0.00000000E+00
  0.00000000E+00  0.00000000E+00  0.00000000E+00
  0.00000000E+00  0.00000000E+00  0.00000000E+00
  0.00000000E+00  0.00000000E+00  0.00000000E+00
  0.00000000E+00  0.00000000E+00  0.00000000E+00
  0.00000000E+00  0.00000000E+00  0.00000000E+00
  0.00000000E+00  0.00000000E+00  0.00000000E+00
