Zr8 V8 N24                              
   1.0000000000000000     
    14.4176962458349447    0.0000000032279140    0.0000000431060343
     0.0000000019564503    5.1596749577876553    0.0000000262073007
     0.0000000143643608    0.0000000381130864    5.5727098305128191
   Zr   V    N 
     8     8    24
Direct
  0.7534216525459005  0.2496037742437090  0.9118328660291949
  0.2465783474185421  0.2496037672632788  0.9118328602435620
  0.7465783499941483  0.7503962313875825  0.4118328628103918
  0.2534216500375009  0.7503962246590489  0.4118328686841022
  0.9999999984295762  0.2450059044270503  0.0841995588411570
  0.5000000006470030  0.2633562449952556  0.0910293635199479
  0.0000000006252586  0.7366437447048801  0.5910293670786728
  0.4999999983373338  0.7549940888441589  0.5841995586613475
  0.6201479414476676  0.2957844422830177  0.5231053806930319
  0.1298236454596124  0.1984838878194682  0.4805240637093902
  0.6298236450665952  0.8015161158403231  0.9805240633573827
  0.1201479415913743  0.7042155654651335  0.0231053780155802
  0.8701763568528122  0.1984838925906511  0.4805240804430979
  0.3798520576254747  0.2957844341267873  0.5231053715079824
  0.8798520576475761  0.7042155739054795  0.0231053686910385
  0.3701763570710792  0.8015161108247401  0.9805240803535399
  0.6564712030155462  0.9303445635237679  0.6933157471938650
  0.1533883186396002  0.9364406038809334  0.6702937483566207
  0.7514120819730192  0.3703715981930027  0.5438931294310847
  0.2485879178045643  0.3703715872093860  0.5438931222517057
  0.0963767039750949  0.4393248300744737  0.8280751820733161
  0.5937271911270251  0.4254060173650350  0.8053229181976128
  0.0937271935524872  0.5745939829683430  0.3053229299362141
  0.5963767047495946  0.5606751739908463  0.3280751745810146
  0.7485879179031275  0.6296284096340339  0.0438931227632676
  0.2514120818681155  0.6296283984126665  0.0438931303807345
  0.6533883188194246  0.0635594009472253  0.1702937375407585
  0.1564712002731497  0.0696554308802095  0.1933157531511763
  0.8466116814900505  0.9364406074684176  0.6702937539553140
  0.3435287971645521  0.9303445503520701  0.6933157539236058
  0.0000000000823362  0.1370587427241845  0.4605739832897746
  0.5000000005607753  0.1263761298043830  0.4514740240615251
  0.9036232959892511  0.4393248337408792  0.8280751779463065
  0.4062728079115009  0.4254060018264963  0.8053229124267515
  0.9062728055435342  0.5745939982658043  0.3053229240571916
  0.4036232950133649  0.5606751703789208  0.3280751706438869
  0.0000000006655963  0.8736238701792290  0.9514740252649541
  0.5000000000230005  0.8629412534159785  0.9605739826618467
  0.8435287998677000  0.0696554441291431  0.1933157597575052
  0.3466116811901336  0.0635593972539986  0.1702937435145758

  0.00000000E+00  0.00000000E+00  0.00000000E+00
  0.00000000E+00  0.00000000E+00  0.00000000E+00
  0.00000000E+00  0.00000000E+00  0.00000000E+00
  0.00000000E+00  0.00000000E+00  0.00000000E+00
  0.00000000E+00  0.00000000E+00  0.00000000E+00
  0.00000000E+00  0.00000000E+00  0.00000000E+00
  0.00000000E+00  0.00000000E+00  0.00000000E+00
  0.00000000E+00  0.00000000E+00  0.00000000E+00
  0.00000000E+00  0.00000000E+00  0.00000000E+00
  0.00000000E+00  0.00000000E+00  0.00000000E+00
  0.00000000E+00  0.00000000E+00  0.00000000E+00
  0.00000000E+00  0.00000000E+00  0.00000000E+00
  0.00000000E+00  0.00000000E+00  0.00000000E+00
  0.00000000E+00  0.00000000E+00  0.00000000E+00
  0.00000000E+00  0.00000000E+00  0.00000000E+00
  0.00000000E+00  0.00000000E+00  0.00000000E+00
  0.00000000E+00  0.00000000E+00  0.00000000E+00
  0.00000000E+00  0.00000000E+00  0.00000000E+00
  0.00000000E+00  0.00000000E+00  0.00000000E+00
  0.00000000E+00  0.00000000E+00  0.00000000E+00
  0.00000000E+00  0.00000000E+00  0.00000000E+00
  0.00000000E+00  0.00000000E+00  0.00000000E+00
  0.00000000E+00  0.00000000E+00  0.00000000E+00
  0.00000000E+00  0.00000000E+00  0.00000000E+00
  0.00000000E+00  0.00000000E+00  0.00000000E+00
  0.00000000E+00  0.00000000E+00  0.00000000E+00
  0.00000000E+00  0.00000000E+00  0.00000000E+00
  0.00000000E+00  0.00000000E+00  0.00000000E+00
  0.00000000E+00  0.00000000E+00  0.00000000E+00
  0.00000000E+00  0.00000000E+00  0.00000000E+00
  0.00000000E+00  0.00000000E+00  0.00000000E+00
  0.00000000E+00  0.00000000E+00  0.00000000E+00
  0.00000000E+00  0.00000000E+00  0.00000000E+00
  0.00000000E+00  0.00000000E+00  0.00000000E+00
  0.00000000E+00  0.00000000E+00  0.00000000E+00
  0.00000000E+00  0.00000000E+00  0.00000000E+00
  0.00000000E+00  0.00000000E+00  0.00000000E+00
  0.00000000E+00  0.00000000E+00  0.00000000E+00
  0.00000000E+00  0.00000000E+00  0.00000000E+00
  0.00000000E+00  0.00000000E+00  0.00000000E+00
