Sc4 Mo4 N12                             
   1.0000000000000000     
     3.0567006599267725    0.0001524565469401   -0.0008874121192806
    -0.0003599557279398    7.1667207414777874   -0.0024751764879338
     0.0023978932747415    0.0036277009858092    9.7195868360480233
   Sc   Mo   N 
     4     4    12
Direct
  0.7500911511626669  0.7500492850187387  0.9853889867658213
  0.2499088533758333  0.2499507153899570  0.0146110104787315
  0.2499151298200354  0.7499625020834285  0.4853895129657075
  0.7500848651227066  0.2500374956318921  0.5146104912703191
  0.8851665259192213  0.0000676167057000  0.2500166644959336
  0.1148334764499554  0.9999323825175666  0.7499833346229592
  0.6145780643218435  0.5000679464530499  0.2499835502815289
  0.3854219314088853  0.4999320530590782  0.7500164512474046
  0.2506642525340484  0.0681344476829518  0.3860332138726995
  0.7493357368460344  0.9318655497613096  0.6139667872481340
  0.2491369317425871  0.4319999816748821  0.3860138226873984
  0.7508630744875683  0.5680000236785068  0.6139861789275666
  0.2500980793974981  0.7499444715578925  0.8311184639801810
  0.7499019266554652  0.2500555298848470  0.1688815338628115
  0.7498612589291146  0.7500499489353832  0.3311191407853247
  0.2501387406008792  0.2499500508698040  0.6688808625044366
  0.2506462204368993  0.9320190157251171  0.1139889402960156
  0.7493537723899367  0.0679809847279818  0.8860110569874545
  0.7508778217645056  0.4318457687331383  0.8860363554554269
  0.2491221866343157  0.5681542299087743  0.1139636412641448

  0.00000000E+00  0.00000000E+00  0.00000000E+00
  0.00000000E+00  0.00000000E+00  0.00000000E+00
  0.00000000E+00  0.00000000E+00  0.00000000E+00
  0.00000000E+00  0.00000000E+00  0.00000000E+00
  0.00000000E+00  0.00000000E+00  0.00000000E+00
  0.00000000E+00  0.00000000E+00  0.00000000E+00
  0.00000000E+00  0.00000000E+00  0.00000000E+00
  0.00000000E+00  0.00000000E+00  0.00000000E+00
  0.00000000E+00  0.00000000E+00  0.00000000E+00
  0.00000000E+00  0.00000000E+00  0.00000000E+00
  0.00000000E+00  0.00000000E+00  0.00000000E+00
  0.00000000E+00  0.00000000E+00  0.00000000E+00
  0.00000000E+00  0.00000000E+00  0.00000000E+00
  0.00000000E+00  0.00000000E+00  0.00000000E+00
  0.00000000E+00  0.00000000E+00  0.00000000E+00
  0.00000000E+00  0.00000000E+00  0.00000000E+00
  0.00000000E+00  0.00000000E+00  0.00000000E+00
  0.00000000E+00  0.00000000E+00  0.00000000E+00
  0.00000000E+00  0.00000000E+00  0.00000000E+00
  0.00000000E+00  0.00000000E+00  0.00000000E+00
