Hf4 V4 N12                              
   1.0000000000000000     
     3.0140306738034277    0.0003799374397431    0.0000000000000000
    -0.0008748611066719    6.9643311447192522    0.0000000000000000
     0.0000000000000000    0.0000000000000000    9.4062948417627670
   Hf   V    N 
     4     4    12
Direct
  0.2776561050370756  0.6486327631666324  0.5115811484283572
  0.7776561050370756  0.1486327631666324  0.4884188515716428
  0.7775597192528464  0.6486293474366517  0.0115759714552745
  0.2775597192528464  0.1486293474366518  0.9884240285447256
  0.9092467238792203  0.8986331059001781  0.7500006923009861
  0.4092467238792205  0.3986331059001780  0.2499993076990138
  0.1459594454699322  0.8986300879435083  0.2499964179071661
  0.6459594454699392  0.3986300879435083  0.7500035820928338
  0.2810646148116810  0.4627571730264781  0.8891039447777590
  0.7810646148116810  0.9627571730264781  0.1108960552222410
  0.7775972287441441  0.6486176153925912  0.6708485907697226
  0.2775972287441441  0.1486176153925912  0.3291514092302774
  0.2740758932031440  0.9627655727762556  0.6108888067223724
  0.7740758932031440  0.4627655727762558  0.3891111932776275
  0.7739966618100828  0.3344880232860125  0.1108768429116421
  0.2739966618100828  0.8344880232860125  0.8891231570883580
  0.7811485181243706  0.8344907907321498  0.3891191936631604
  0.2811485181243706  0.3344907907321499  0.6108808063368395
  0.7775280896674873  0.1486095203395445  0.8291558025359819
  0.2775280896674944  0.6486095203395446  0.1708441974640182

  0.00000000E+00  0.00000000E+00  0.00000000E+00
  0.00000000E+00  0.00000000E+00  0.00000000E+00
  0.00000000E+00  0.00000000E+00  0.00000000E+00
  0.00000000E+00  0.00000000E+00  0.00000000E+00
  0.00000000E+00  0.00000000E+00  0.00000000E+00
  0.00000000E+00  0.00000000E+00  0.00000000E+00
  0.00000000E+00  0.00000000E+00  0.00000000E+00
  0.00000000E+00  0.00000000E+00  0.00000000E+00
  0.00000000E+00  0.00000000E+00  0.00000000E+00
  0.00000000E+00  0.00000000E+00  0.00000000E+00
  0.00000000E+00  0.00000000E+00  0.00000000E+00
  0.00000000E+00  0.00000000E+00  0.00000000E+00
  0.00000000E+00  0.00000000E+00  0.00000000E+00
  0.00000000E+00  0.00000000E+00  0.00000000E+00
  0.00000000E+00  0.00000000E+00  0.00000000E+00
  0.00000000E+00  0.00000000E+00  0.00000000E+00
  0.00000000E+00  0.00000000E+00  0.00000000E+00
  0.00000000E+00  0.00000000E+00  0.00000000E+00
  0.00000000E+00  0.00000000E+00  0.00000000E+00
  0.00000000E+00  0.00000000E+00  0.00000000E+00
