Sc4 W4 N12                              
   1.0000000000000000     
     3.0361737757560450   -0.0000001016244794   -0.0004774188541560
    -0.0000002572863396    7.2200835618480648    0.0000000245360870
     0.0016743099206962    0.0000000380750696    9.7571200277090924
   Sc   W    N 
     4     4    12
Direct
  0.5000018809731500  0.6467542938870293  0.7361366065946753
  0.4999981200084150  0.1467542975343021  0.2638634012959303
  0.9999981190268500  0.1466847061129699  0.7638633934053247
  0.0000018799915850  0.6466847024656973  0.2361365987040697
  0.1178525917265009  0.8966754358435050  0.4999868960631503
  0.8821473811299141  0.3966754217888417  0.5000131701235787
  0.3821474082734991  0.8967635641564944  0.0000131039368497
  0.6178526188700859  0.3967635782111577  0.9999868298764213
  0.5046843487276840  0.9643926301226796  0.6358437603379892
  0.4953155865065092  0.4643926413585203  0.3641562088308439
  0.0047074586023844  0.4644983818280206  0.8641416483842455
  0.9952924604763904  0.9644983962047657  0.1358583878987525
  0.9953156512723160  0.8290463698773197  0.8641562396620108
  0.0046844134934908  0.3290463586414790  0.1358437911691561
  0.5047075395236096  0.8289406037952336  0.3641416121012475
  0.4952925413976156  0.3289406181719787  0.6358583516157545
  0.0000076185313233  0.6466841952421729  0.5809003292083509
  0.9999923741742236  0.1466841975545490  0.4190996509851993
  0.4999923814686766  0.1467548047578264  0.9190996707916491
  0.5000076258257764  0.6467548024454504  0.0809003490148007

  0.00000000E+00  0.00000000E+00  0.00000000E+00
  0.00000000E+00  0.00000000E+00  0.00000000E+00
  0.00000000E+00  0.00000000E+00  0.00000000E+00
  0.00000000E+00  0.00000000E+00  0.00000000E+00
  0.00000000E+00  0.00000000E+00  0.00000000E+00
  0.00000000E+00  0.00000000E+00  0.00000000E+00
  0.00000000E+00  0.00000000E+00  0.00000000E+00
  0.00000000E+00  0.00000000E+00  0.00000000E+00
  0.00000000E+00  0.00000000E+00  0.00000000E+00
  0.00000000E+00  0.00000000E+00  0.00000000E+00
  0.00000000E+00  0.00000000E+00  0.00000000E+00
  0.00000000E+00  0.00000000E+00  0.00000000E+00
  0.00000000E+00  0.00000000E+00  0.00000000E+00
  0.00000000E+00  0.00000000E+00  0.00000000E+00
  0.00000000E+00  0.00000000E+00  0.00000000E+00
  0.00000000E+00  0.00000000E+00  0.00000000E+00
  0.00000000E+00  0.00000000E+00  0.00000000E+00
  0.00000000E+00  0.00000000E+00  0.00000000E+00
  0.00000000E+00  0.00000000E+00  0.00000000E+00
  0.00000000E+00  0.00000000E+00  0.00000000E+00
