Ta4 Sn4 N12                             
   1.0000000000000000     
     5.3518345373778393    0.0000000000000000    0.0000000000000000
     0.0000000000000000    6.2400203484660581   -0.0179918298015899
     0.0000000000000000   -0.6198681363310606    7.3544623719739546
   Ta   Sn   N 
     4     4    12
Direct
  0.6698443319660361  0.6763796800826500  0.4765349432130274
  0.1698443319660361  0.3236203199173500  0.5234650567869656
  0.6339856680339688  0.6763796800826500  0.9765349432130344
  0.1339856680339688  0.3236203199173500  0.0234650567869726
  0.1509777936262195  0.8813292445034694  0.1798086459595364
  0.6509777936262194  0.1186707554965306  0.8201913540404635
  0.6528522063737784  0.1186707554965306  0.3201913540404636
  0.1528522063737783  0.8813292445034694  0.6798086459595365
  0.0195849596218997  0.2243960764126745  0.7581800977744161
  0.5195849596218998  0.7756039235873255  0.2418199022255839
  0.4497617687671889  0.0895015340863820  0.5739927557099214
  0.9497617687671889  0.9104984659136180  0.4260072442900787
  0.8540682312328089  0.0895015340863820  0.0739927557099214
  0.3540682312328089  0.9104984659136180  0.9260072442900786
  0.4736355059224266  0.4065056970714931  0.9319812181298515
  0.9736355059224266  0.5934943029285068  0.0680187818701486
  0.7842440403781006  0.7756039235873255  0.7418199022255839
  0.2842440403781006  0.2243960764126745  0.2581800977744160
  0.3301944940775712  0.5934943029285068  0.5680187818701485
  0.8301944940775712  0.4065056970714931  0.4319812181298515

  0.00000000E+00  0.00000000E+00  0.00000000E+00
  0.00000000E+00  0.00000000E+00  0.00000000E+00
  0.00000000E+00  0.00000000E+00  0.00000000E+00
  0.00000000E+00  0.00000000E+00  0.00000000E+00
  0.00000000E+00  0.00000000E+00  0.00000000E+00
  0.00000000E+00  0.00000000E+00  0.00000000E+00
  0.00000000E+00  0.00000000E+00  0.00000000E+00
  0.00000000E+00  0.00000000E+00  0.00000000E+00
  0.00000000E+00  0.00000000E+00  0.00000000E+00
  0.00000000E+00  0.00000000E+00  0.00000000E+00
  0.00000000E+00  0.00000000E+00  0.00000000E+00
  0.00000000E+00  0.00000000E+00  0.00000000E+00
  0.00000000E+00  0.00000000E+00  0.00000000E+00
  0.00000000E+00  0.00000000E+00  0.00000000E+00
  0.00000000E+00  0.00000000E+00  0.00000000E+00
  0.00000000E+00  0.00000000E+00  0.00000000E+00
  0.00000000E+00  0.00000000E+00  0.00000000E+00
  0.00000000E+00  0.00000000E+00  0.00000000E+00
  0.00000000E+00  0.00000000E+00  0.00000000E+00
  0.00000000E+00  0.00000000E+00  0.00000000E+00
